     Program PWSCF v.6.3 starts on 15Apr2020 at 22:27:26

     Reading input from /home/nano3/Desktop/RAYID/Ge+SiC/Ge+SiC_II/Ge+SiC_II__3.2.scf.in

     Current dimensions of program PWSCF are:
     Max number of different atomic species (ntypx) = 10
     Max number of k-points (npk) =  40000
     Max angular momentum in pseudopotentials (lmaxx) =  3

     IMPORTANT: XC functional enforced from input :
     Exchange-correlation      = PBE ( 1  4  3  4 0 0)
     Any further DFT definition will be discarded
     Please, verify this is what you really want

               file Ge.pbe-mt_fhi.UPF: wavefunction(s)  4d 4f renormalized
               file C.pbe-mt_fhi.UPF: wavefunction(s)  4f renormalized
               file Si.pbe-mt_fhi.UPF: wavefunction(s)  4f renormalized

     Parameters for Dispersion (Grimme-D2) Correction:
       atom      VdW radius       C_6

        Ge         3.264        593.221
        C          2.744         60.710
        Si         3.243        320.200

     Subspace diagonalization in iterative solution of the eigenvalue problem:
     a serial algorithm will be used

     bravais-lattice index     =            4
     lattice parameter (alat)  =      23.1302  a.u.
     unit-cell volume          =   17511.3678 (a.u.)^3
     number of atoms/cell      =           50
     number of atomic types    =            3
     number of electrons       =       200.00
     number of Kohn-Sham states=          120
     kinetic-energy cutoff     =      30.0000  Ry
     charge density cutoff     =     120.0000  Ry
     convergence threshold     =      1.0E-04
     mixing beta               =       0.7000
     number of iterations used =            8  plain     mixing
     Exchange-correlation      = PBE ( 1  4  3  4 0 0)

     celldm(1)=  23.130248  celldm(2)=   0.000000  celldm(3)=   1.633987
     celldm(4)=   0.000000  celldm(5)=   0.000000  celldm(6)=   0.000000

     crystal axes: (cart. coord. in units of alat)
               a(1) = (   1.000000   0.000000   0.000000 )
               a(2) = (  -0.500000   0.866025   0.000000 )
               a(3) = (   0.000000   0.000000   1.633987 )

     reciprocal axes: (cart. coord. in units 2 pi/alat)
               b(1) = (  1.000000  0.577350 -0.000000 )
               b(2) = (  0.000000  1.154701  0.000000 )
               b(3) = (  0.000000 -0.000000  0.612000 )

     PseudoPot. # 1 for Ge read from file:
     /home/nano3/Desktop/RAYID/qe-6.3/bin/pseudo/Ge.pbe-mt_fhi.UPF
     MD5 check sum: b08ff19c3d362044f6e29226b459d86a
     Pseudo is Norm-conserving, Zval =  4.0
     Generated using FHI98PP, converted with fhi2upf.x v.5.0.2
     Using radial grid of  529 points,  3 beta functions with:
                l(1) =   1
                l(2) =   2
                l(3) =   3

     PseudoPot. # 2 for C  read from file:
     /home/nano3/Desktop/RAYID/qe-6.3/bin/pseudo/C.pbe-mt_fhi.UPF
     MD5 check sum: 058ca341f9d6d5327d9962fd88a91b65
     Pseudo is Norm-conserving, Zval =  4.0
     Generated using FHI98PP, converted with fhi2upf.x v.5.0.2
     Using radial grid of  461 points,  3 beta functions with:
                l(1) =   0
                l(2) =   1
                l(3) =   3

     PseudoPot. # 3 for Si read from file:
     /home/nano3/Desktop/RAYID/qe-6.3/bin/pseudo/Si.pbe-mt_fhi.UPF
     MD5 check sum: 259057c2adf9952f9ced37ae3d9e311d
     Pseudo is Norm-conserving, Zval =  4.0
     Generated using FHI98PP, converted with fhi2upf.x v.5.0.2
     Using radial grid of  495 points,  3 beta functions with:
                l(1) =   0
                l(2) =   1
                l(3) =   3

     atomic species   valence    mass     pseudopotential
        Ge             4.00    72.59000     Ge( 1.00)
        C              4.00    12.01070     C ( 1.00)
        Si             4.00    28.08550     Si( 1.00)

      6 Sym. Ops. (no inversion) found

                                    s                        frac. trans.

      isym =  1     identity

 cryst.   s( 1) = (     1          0          0      )
                  (     0          1          0      )
                  (     0          0          1      )

 cart.    s( 1) = (  1.0000000  0.0000000  0.0000000 )
                  (  0.0000000  1.0000000  0.0000000 )
                  (  0.0000000  0.0000000  1.0000000 )

      isym =  2     120 deg rotation - cryst. axis [0,0,1]

[...]

      isym =  3     120 deg rotation - cryst. axis [0,0,-1]

[...]

      isym =  4     inv. 180 deg rotation - cart. axis [1,0,0]

[...]

      isym =  5     inv. 180 deg rotation - cryst. axis [0,1,0]

[...]

      isym =  6     inv. 180 deg rotation - cryst. axis [1,1,0]

 cryst.   s( 6) = (     0         -1          0      )
                  (    -1          0          0      )
                  (     0          0          1      )

 cart.    s( 6) = (  0.5000000 -0.8660254  0.0000000 )
                  ( -0.8660254 -0.5000000  0.0000000 )
                  (  0.0000000  0.0000000  1.0000000 )

     point group C_3v (3m)
     there are  3 classes
     the character table:

       E     2C3   3s_v
A_1    1.00  1.00  1.00
A_2    1.00  1.00 -1.00
E      2.00 -1.00  0.00

     the symmetry operations in each class and the name of the first element:

     E        1
          identity
     2C3      2    3
          120 deg rotation - cryst. axis [0,0,1]
     3s_v     4    5    6
          inv. 180 deg rotation - cart. axis [1,0,0]

   Cartesian axes

     site n.     atom                  positions (alat units)
         1           Ge  tau(   1) = (   0.0000000   0.0000000   0.2614379  )
         2           Ge  tau(   2) = (   0.0000000   0.1924510   0.3163399  )
         3           Ge  tau(   3) = (  -0.1666667   0.2886751   0.2614379  )
         4           Ge  tau(   4) = (  -0.1666667   0.4811261   0.3163399  )
         5           Ge  tau(   5) = (  -0.3333333   0.5773503   0.2614379  )
         6           Ge  tau(   6) = (  -0.3333333   0.7698012   0.3163399  )
         7           Ge  tau(   7) = (   0.3333333   0.0000000   0.2614379  )
         8           Ge  tau(   8) = (   0.3333333   0.1924510   0.3163399  )
         9           Ge  tau(   9) = (   0.1666667   0.2886751   0.2614379  )
        10           Ge  tau(  10) = (   0.1666667   0.4811261   0.3163399  )
        11           Ge  tau(  11) = (   0.0000000   0.5773503   0.2614379  )
        12           Ge  tau(  12) = (   0.0000000   0.7698012   0.3163399  )
        13           Ge  tau(  13) = (   0.6666667   0.0000000   0.2614379  )
        14           Ge  tau(  14) = (   0.6666667   0.1924510   0.3163399  )
        15           Ge  tau(  15) = (   0.5000000   0.2886751   0.2614379  )
        16           Ge  tau(  16) = (   0.5000000   0.4811261   0.3163399  )
        17           Ge  tau(  17) = (   0.3333333   0.5773503   0.2614379  )
        18           Ge  tau(  18) = (   0.3333333   0.7698012   0.3163399  )
        19           C   tau(  19) = (   0.0000000   0.0000000   0.0000000  )
        20           Si  tau(  20) = (   0.0000000   0.1443382   0.0000000  )
        21           C   tau(  21) = (  -0.1250000   0.2165064   0.0000000  )
        22           Si  tau(  22) = (  -0.1250000   0.3608446   0.0000000  )
        23           C   tau(  23) = (  -0.2500000   0.4330127   0.0000000  )
        24           Si  tau(  24) = (  -0.2500000   0.5773509   0.0000000  )
        25           C   tau(  25) = (  -0.3750000   0.6495191   0.0000000  )
        26           Si  tau(  26) = (  -0.3750000   0.7938573   0.0000000  )
        27           C   tau(  27) = (   0.2500000   0.0000000   0.0000000  )
        28           Si  tau(  28) = (   0.2500000   0.1443382   0.0000000  )
        29           C   tau(  29) = (   0.1250000   0.2165064   0.0000000  )
        30           Si  tau(  30) = (   0.1250000   0.3608446   0.0000000  )
        31           C   tau(  31) = (   0.0000000   0.4330127   0.0000000  )
        32           Si  tau(  32) = (   0.0000000   0.5773509   0.0000000  )
        33           C   tau(  33) = (  -0.1250000   0.6495191   0.0000000  )
        34           Si  tau(  34) = (  -0.1250000   0.7938573   0.0000000  )
        35           C   tau(  35) = (   0.5000000   0.0000000   0.0000000  )
        36           Si  tau(  36) = (   0.5000000   0.1443382   0.0000000  )
        37           C   tau(  37) = (   0.3750000   0.2165064   0.0000000  )
        38           Si  tau(  38) = (   0.3750000   0.3608446   0.0000000  )
        39           C   tau(  39) = (   0.2500000   0.4330127   0.0000000  )
        40           Si  tau(  40) = (   0.2500000   0.5773509   0.0000000  )
        41           C   tau(  41) = (   0.1250000   0.6495191   0.0000000  )
        42           Si  tau(  42) = (   0.1250000   0.7938573   0.0000000  )
        43           C   tau(  43) = (   0.7500000   0.0000000   0.0000000  )
        44           Si  tau(  44) = (   0.7500000   0.1443382   0.0000000  )
        45           C   tau(  45) = (   0.6250000   0.2165064   0.0000000  )
        46           Si  tau(  46) = (   0.6250000   0.3608446   0.0000000  )
        47           C   tau(  47) = (   0.5000000   0.4330127   0.0000000  )
        48           Si  tau(  48) = (   0.5000000   0.5773509   0.0000000  )
        49           C   tau(  49) = (   0.3750000   0.6495191   0.0000000  )
        50           Si  tau(  50) = (   0.3750000   0.7938573   0.0000000  )

   Crystallographic axes

     site n.     atom                  positions (cryst. coord.)
         1           Ge  tau(   1) = (  0.0000000  0.0000000  0.1600000  )
         2           Ge  tau(   2) = (  0.1111116  0.2222233  0.1936000  )
         3           Ge  tau(   3) = ( -0.0000000  0.3333333  0.1600000  )
         4           Ge  tau(   4) = (  0.1111116  0.5555566  0.1936000  )
         5           Ge  tau(   5) = ( -0.0000000  0.6666667  0.1600000  )
         6           Ge  tau(   6) = (  0.1111116  0.8888899  0.1936000  )
         7           Ge  tau(   7) = (  0.3333333  0.0000000  0.1600000  )
         8           Ge  tau(   8) = (  0.4444450  0.2222233  0.1936000  )
         9           Ge  tau(   9) = (  0.3333333  0.3333333  0.1600000  )
        10           Ge  tau(  10) = (  0.4444450  0.5555566  0.1936000  )
        11           Ge  tau(  11) = (  0.3333333  0.6666667  0.1600000  )
        12           Ge  tau(  12) = (  0.4444450  0.8888899  0.1936000  )
        13           Ge  tau(  13) = (  0.6666667  0.0000000  0.1600000  )
        14           Ge  tau(  14) = (  0.7777783  0.2222233  0.1936000  )
        15           Ge  tau(  15) = (  0.6666667  0.3333333  0.1600000  )
        16           Ge  tau(  16) = (  0.7777783  0.5555566  0.1936000  )
        17           Ge  tau(  17) = (  0.6666667  0.6666667  0.1600000  )
        18           Ge  tau(  18) = (  0.7777783  0.8888899  0.1936000  )
        19           C   tau(  19) = (  0.0000000  0.0000000  0.0000000  )
        20           Si  tau(  20) = (  0.0833337  0.1666674  0.0000000  )
        21           C   tau(  21) = (  0.0000000  0.2500000  0.0000000  )
        22           Si  tau(  22) = (  0.0833337  0.4166674  0.0000000  )
        23           C   tau(  23) = (  0.0000000  0.5000000  0.0000000  )
        24           Si  tau(  24) = (  0.0833337  0.6666674  0.0000000  )
        25           C   tau(  25) = (  0.0000000  0.7500000  0.0000000  )
        26           Si  tau(  26) = (  0.0833337  0.9166674  0.0000000  )
        27           C   tau(  27) = (  0.2500000  0.0000000  0.0000000  )
        28           Si  tau(  28) = (  0.3333337  0.1666674  0.0000000  )
        29           C   tau(  29) = (  0.2500000  0.2500000  0.0000000  )
        30           Si  tau(  30) = (  0.3333337  0.4166674  0.0000000  )
        31           C   tau(  31) = (  0.2500000  0.5000000  0.0000000  )
        32           Si  tau(  32) = (  0.3333337  0.6666674  0.0000000  )
        33           C   tau(  33) = (  0.2500000  0.7500000  0.0000000  )
        34           Si  tau(  34) = (  0.3333337  0.9166674  0.0000000  )
        35           C   tau(  35) = (  0.5000000  0.0000000  0.0000000  )
        36           Si  tau(  36) = (  0.5833337  0.1666674  0.0000000  )
        37           C   tau(  37) = (  0.5000000  0.2500000  0.0000000  )
        38           Si  tau(  38) = (  0.5833337  0.4166674  0.0000000  )
        39           C   tau(  39) = (  0.5000000  0.5000000  0.0000000  )
        40           Si  tau(  40) = (  0.5833337  0.6666674  0.0000000  )
        41           C   tau(  41) = (  0.5000000  0.7500000  0.0000000  )
        42           Si  tau(  42) = (  0.5833337  0.9166674  0.0000000  )
        43           C   tau(  43) = (  0.7500000  0.0000000  0.0000000  )
        44           Si  tau(  44) = (  0.8333337  0.1666674  0.0000000  )
        45           C   tau(  45) = (  0.7500000  0.2500000  0.0000000  )
        46           Si  tau(  46) = (  0.8333337  0.4166674  0.0000000  )
        47           C   tau(  47) = (  0.7500000  0.5000000  0.0000000  )
        48           Si  tau(  48) = (  0.8333337  0.6666674  0.0000000  )
        49           C   tau(  49) = (  0.7500000  0.7500000  0.0000000  )
        50           Si  tau(  50) = (  0.8333337  0.9166674  0.0000000  )

     number of k points=     3  Methfessel-Paxton smearing, width (Ry)=  0.0060
                       cart. coord. in units 2pi/alat
        k(    1) = (   0.0000000   0.0000000   0.0000000), wk =   0.2222222
        k(    2) = (   0.0000000   0.3849002   0.0000000), wk =   1.3333333
        k(    3) = (   0.3333333   0.5773503   0.0000000), wk =   0.4444444

                       cryst. coord.
        k(    1) = (   0.0000000   0.0000000   0.0000000), wk =   0.2222222
        k(    2) = (   0.0000000   0.3333333   0.0000000), wk =   1.3333333
        k(    3) = (   0.3333333   0.3333333   0.0000000), wk =   0.4444444

     Initial potential from superposition of free atoms
     Check: negative starting charge=   -0.006732

     starting charge  199.97158, renormalised to  200.00000

     negative rho (up, down):  6.733E-03 0.000E+00
     Starting wfcs are  800 randomized atomic wfcs

     Self-consistent Calculation

     iteration #  1     ecut=    30.00 Ry     beta= 0.70
     Davidson diagonalization with overlap
     ethr =  1.00E-02,  avg # of iterations =  2.0

     negative rho (up, down):  1.407E-03 0.000E+00

     total energy              =    -444.58882945 Ry
     Harris-Foulkes estimate   =    -451.59984685 Ry
     estimated scf accuracy    <      10.39487115 Ry

[...]

     negative rho (up, down):  5.262E-07 0.000E+00

[...]

     total energy              =    -448.67644443 Ry
     Harris-Foulkes estimate   =    -448.67653445 Ry
     estimated scf accuracy    <       0.00023234 Ry

     iteration # 12     ecut=    30.00 Ry     beta= 0.70
     Davidson diagonalization with overlap
     ethr =  1.16E-07,  avg # of iterations =  3.0

     End of self-consistent calculation

          k = 0.0000 0.0000 0.0000 ( 48515 PWs)   bands (ev):

   -15.9262 -14.9350 -14.9144 -14.9144 -14.8783 -14.8783 -14.8588 -13.1849
   -13.1725 -13.1167 -13.1167 -13.1045 -13.1045 -12.8958 -12.8957 -12.8909
   -12.0293 -10.9182 -10.9082 -10.9082 -10.8903 -10.8902 -10.8775  -9.9595
    -9.9595  -9.9567  -9.1490  -9.1466  -9.0581  -9.0581  -8.7171  -8.7171
    -8.7088  -8.7088  -8.6736  -8.6692  -6.9491  -6.9449  -6.9449  -6.9364
    -6.9363  -6.9234  -6.7124  -6.7123  -6.6867  -6.6743  -6.6743  -6.6633
    -6.5466  -6.5149  -6.5148  -6.4879  -6.4879  -6.4771  -6.1817  -5.0129
    -4.9919  -4.9919  -4.9548  -4.9548  -4.9346  -4.8213  -4.8212  -4.8207
    -4.5978  -4.5978  -4.1505  -4.1460  -4.1459  -4.1302  -4.1301  -4.1219
    -3.9523  -3.2588  -3.2534  -3.2358  -3.2357  -3.0275  -3.0275  -2.8700
    -2.8700  -2.8142  -2.8014  -2.8014  -2.6178  -2.6162  -2.6162  -2.5837
    -2.5618  -2.5618  -2.3357  -2.3356  -2.3245  -2.2648  -2.2504  -2.2504
    -1.4029  -1.4027  -0.7328  -0.7328  -0.6295  -0.5999  -0.5953  -0.1457
    -0.1456  -0.1230   0.3524   0.3525   0.4140   0.6132   0.6773   0.6773
     1.0945   1.0945   1.1171   1.2000   1.4628   1.4629   1.5788   1.5790

     occupation numbers
     1.0000   1.0000   1.0000   1.0000   1.0000   1.0000   1.0000   1.0000
     1.0000   1.0000   1.0000   1.0000   1.0000   1.0000   1.0000   1.0000
     1.0000   1.0000   1.0000   1.0000   1.0000   1.0000   1.0000   1.0000
     1.0000   1.0000   1.0000   1.0000   1.0000   1.0000   1.0000   1.0000
     1.0000   1.0000   1.0000   1.0000   1.0000   1.0000   1.0000   1.0000
     1.0000   1.0000   1.0000   1.0000   1.0000   1.0000   1.0000   1.0000
     1.0000   1.0000   1.0000   1.0000   1.0000   1.0000   1.0000   1.0000
     1.0000   1.0000   1.0000   1.0000   1.0000   1.0000   1.0000   1.0000
     1.0000   1.0000   1.0000   1.0000   1.0000   1.0000   1.0000   1.0000
     1.0000   1.0000   1.0000   1.0000   1.0000   1.0000   1.0000   1.0000
     1.0000   1.0000   1.0000   1.0000   1.0000   1.0000   1.0000   1.0000
     1.0000   1.0000   1.0000   1.0000   1.0000   1.0000   1.0000   1.0000
     1.0000   1.0000   0.9653   0.9653   0.1041  -0.0133  -0.0215  -0.0000
    -0.0000  -0.0000  -0.0000  -0.0000  -0.0000  -0.0000  -0.0000  -0.0000
    -0.0000  -0.0000  -0.0000  -0.0000  -0.0000  -0.0000  -0.0000  -0.0000

[...]

          k = 0.3333 0.5774 0.0000 ( 48552 PWs)   bands (ev):

   -15.6128 -15.5661 -15.5496 -14.5699 -14.5688 -14.5673 -13.7140 -13.6916
   -13.6885 -13.6498 -13.6472 -13.6291 -12.7061 -12.6526 -12.6370 -12.3011
   -11.6496 -11.6465 -11.6198 -10.5347 -10.5340 -10.5324  -9.9690  -9.9516
    -9.9463  -9.7016  -9.6710  -9.6474  -9.2667  -8.7179  -8.7085  -8.6987
    -8.6807  -8.6684  -8.6610  -8.3079  -8.3016  -8.2848  -7.7473  -7.3846
    -7.3810  -7.3770  -6.8559  -6.8532  -6.8526  -6.3037  -6.2938  -6.2721
    -5.9335  -5.8901  -5.8869  -5.0942  -5.0911  -5.0789  -5.0615  -5.0533
    -5.0508  -5.0186  -5.0183  -5.0166  -4.8782  -4.8679  -4.8571  -4.6436
    -4.6401  -4.6374  -4.5758  -4.5600  -4.5533  -3.8258  -3.8161  -3.7879
    -3.7806  -3.7601  -3.7461  -3.7084  -3.7083  -3.6856  -3.6767  -3.6583
    -3.6540  -3.3758  -3.3624  -3.3526  -2.7076  -2.7034  -2.6952  -2.5480
    -2.4872  -2.3965  -2.2116  -2.2104  -2.1998  -1.9782  -1.9250  -1.8663
    -1.8444  -1.4678  -1.4644  -1.4639  -0.3732  -0.2673  -0.1173  -0.0861
     0.0600   0.4433   0.8110   0.8691   1.1450   1.1522   1.1778   1.2864
     1.3674   1.4002   1.4435   1.4480   1.4791   1.4874   1.5841   1.8270

     occupation numbers
     1.0000   1.0000   1.0000   1.0000   1.0000   1.0000   1.0000   1.0000
     1.0000   1.0000   1.0000   1.0000   1.0000   1.0000   1.0000   1.0000
     1.0000   1.0000   1.0000   1.0000   1.0000   1.0000   1.0000   1.0000
     1.0000   1.0000   1.0000   1.0000   1.0000   1.0000   1.0000   1.0000
     1.0000   1.0000   1.0000   1.0000   1.0000   1.0000   1.0000   1.0000
     1.0000   1.0000   1.0000   1.0000   1.0000   1.0000   1.0000   1.0000
     1.0000   1.0000   1.0000   1.0000   1.0000   1.0000   1.0000   1.0000
     1.0000   1.0000   1.0000   1.0000   1.0000   1.0000   1.0000   1.0000
     1.0000   1.0000   1.0000   1.0000   1.0000   1.0000   1.0000   1.0000
     1.0000   1.0000   1.0000   1.0000   1.0000   1.0000   1.0000   1.0000
     1.0000   1.0000   1.0000   1.0000   1.0000   1.0000   1.0000   1.0000
     1.0000   1.0000   1.0000   1.0000   1.0000   1.0000   1.0000   1.0000
     1.0000   1.0000   1.0000   1.0000  -0.0000  -0.0000  -0.0000  -0.0000
    -0.0000  -0.0000  -0.0000  -0.0000  -0.0000  -0.0000  -0.0000  -0.0000
    -0.0000  -0.0000  -0.0000  -0.0000  -0.0000  -0.0000  -0.0000  -0.0000

     the Fermi energy is    -0.6743 ev

!    total energy              =    -448.67646092 Ry
     Harris-Foulkes estimate   =    -448.67649976 Ry
     estimated scf accuracy    <       0.00004767 Ry

     The total energy is the sum of the following terms:

     one-electron contribution =   -3319.11245558 Ry
     hartree contribution      =    1696.77644521 Ry
     xc contribution           =    -136.02494222 Ry
     ewald contribution        =    1310.23536792 Ry
     Dispersion Correction     =      -0.55094533 Ry
     smearing contrib. (-TS)   =       0.00006908 Ry

     convergence has been achieved in  12 iterations

     Writing output data file Ge+SiC_II__3.2.save/

     General routines

     Parallel routines

   This run was terminated on:  22:55:41  15Apr2020

   JOB DONE.