     Program PWSCF v.6.3 starts on 16Apr2020 at 13: 7: 0

     Reading input from /home/nano3/Desktop/RAYID/Ge+SiC/Ge+SiC_II/Ge+SiC_II__3.6.scf.in

     Current dimensions of program PWSCF are:
     Max number of different atomic species (ntypx) = 10
     Max number of k-points (npk) =  40000
     Max angular momentum in pseudopotentials (lmaxx) =  3

     IMPORTANT: XC functional enforced from input :
     Exchange-correlation      = PBE ( 1  4  3  4 0 0)
     Any further DFT definition will be discarded
     Please, verify this is what you really want

               file Ge.pbe-mt_fhi.UPF: wavefunction(s)  4d 4f renormalized
               file C.pbe-mt_fhi.UPF: wavefunction(s)  4f renormalized
               file Si.pbe-mt_fhi.UPF: wavefunction(s)  4f renormalized

     Parameters for Dispersion (Grimme-D2) Correction:
       atom      VdW radius       C_6

        Ge         3.264        593.221
        C          2.744         60.710
        Si         3.243        320.200

     Subspace diagonalization in iterative solution of the eigenvalue problem:
     a serial algorithm will be used

     bravais-lattice index     =            4
     lattice parameter (alat)  =      23.1302  a.u.
     unit-cell volume          =   17511.3678 (a.u.)^3
     number of atoms/cell      =           50
     number of atomic types    =            3
     number of electrons       =       200.00
     number of Kohn-Sham states=          120
     kinetic-energy cutoff     =      30.0000  Ry
     charge density cutoff     =     120.0000  Ry
     convergence threshold     =      1.0E-04
     mixing beta               =       0.7000
     number of iterations used =            8  plain     mixing
     Exchange-correlation      = PBE ( 1  4  3  4 0 0)

     celldm(1)=  23.130248  celldm(2)=   0.000000  celldm(3)=   1.633987
     celldm(4)=   0.000000  celldm(5)=   0.000000  celldm(6)=   0.000000

     crystal axes: (cart. coord. in units of alat)
               a(1) = (   1.000000   0.000000   0.000000 )
               a(2) = (  -0.500000   0.866025   0.000000 )
               a(3) = (   0.000000   0.000000   1.633987 )

     reciprocal axes: (cart. coord. in units 2 pi/alat)
               b(1) = (  1.000000  0.577350 -0.000000 )
               b(2) = (  0.000000  1.154701  0.000000 )
               b(3) = (  0.000000 -0.000000  0.612000 )

     PseudoPot. # 1 for Ge read from file:
     /home/nano3/Desktop/RAYID/qe-6.3/bin/pseudo/Ge.pbe-mt_fhi.UPF
     MD5 check sum: b08ff19c3d362044f6e29226b459d86a
     Pseudo is Norm-conserving, Zval =  4.0
     Generated using FHI98PP, converted with fhi2upf.x v.5.0.2
     Using radial grid of  529 points,  3 beta functions with:
                l(1) =   1
                l(2) =   2
                l(3) =   3

     PseudoPot. # 2 for C  read from file:
     /home/nano3/Desktop/RAYID/qe-6.3/bin/pseudo/C.pbe-mt_fhi.UPF
     MD5 check sum: 058ca341f9d6d5327d9962fd88a91b65
     Pseudo is Norm-conserving, Zval =  4.0
     Generated using FHI98PP, converted with fhi2upf.x v.5.0.2
     Using radial grid of  461 points,  3 beta functions with:
                l(1) =   0
                l(2) =   1
                l(3) =   3

     PseudoPot. # 3 for Si read from file:
     /home/nano3/Desktop/RAYID/qe-6.3/bin/pseudo/Si.pbe-mt_fhi.UPF
     MD5 check sum: 259057c2adf9952f9ced37ae3d9e311d
     Pseudo is Norm-conserving, Zval =  4.0
     Generated using FHI98PP, converted with fhi2upf.x v.5.0.2
     Using radial grid of  495 points,  3 beta functions with:
                l(1) =   0
                l(2) =   1
                l(3) =   3

     atomic species   valence    mass     pseudopotential
        Ge             4.00    72.59000     Ge( 1.00)
        C              4.00    12.01070     C ( 1.00)
        Si             4.00    28.08550     Si( 1.00)

      6 Sym. Ops. (no inversion) found

                                    s                        frac. trans.

      isym =  1     identity

 cryst.   s( 1) = (     1          0          0      )
                  (     0          1          0      )
                  (     0          0          1      )

 cart.    s( 1) = (  1.0000000  0.0000000  0.0000000 )
                  (  0.0000000  1.0000000  0.0000000 )
                  (  0.0000000  0.0000000  1.0000000 )

      isym =  2     120 deg rotation - cryst. axis [0,0,1]

[...]

      isym =  3     120 deg rotation - cryst. axis [0,0,-1]

[...]

      isym =  4     inv. 180 deg rotation - cart. axis [1,0,0]

[...]

      isym =  5     inv. 180 deg rotation - cryst. axis [0,1,0]

[...]

      isym =  6     inv. 180 deg rotation - cryst. axis [1,1,0]

 cryst.   s( 6) = (     0         -1          0      )
                  (    -1          0          0      )
                  (     0          0          1      )

 cart.    s( 6) = (  0.5000000 -0.8660254  0.0000000 )
                  ( -0.8660254 -0.5000000  0.0000000 )
                  (  0.0000000  0.0000000  1.0000000 )

     point group C_3v (3m)
     there are  3 classes
     the character table:

       E     2C3   3s_v
A_1    1.00  1.00  1.00
A_2    1.00  1.00 -1.00
E      2.00 -1.00  0.00

     the symmetry operations in each class and the name of the first element:

     E        1
          identity
     2C3      2    3
          120 deg rotation - cryst. axis [0,0,1]
     3s_v     4    5    6
          inv. 180 deg rotation - cart. axis [1,0,0]

   Cartesian axes

     site n.     atom                  positions (alat units)
         1           Ge  tau(   1) = (   0.0000000   0.0000000   0.2941176  )
         2           Ge  tau(   2) = (   0.0000000   0.1924510   0.3490196  )
         3           Ge  tau(   3) = (  -0.1666667   0.2886751   0.2941176  )
         4           Ge  tau(   4) = (  -0.1666667   0.4811261   0.3490196  )
         5           Ge  tau(   5) = (  -0.3333333   0.5773503   0.2941176  )
         6           Ge  tau(   6) = (  -0.3333333   0.7698012   0.3490196  )
         7           Ge  tau(   7) = (   0.3333333   0.0000000   0.2941176  )
         8           Ge  tau(   8) = (   0.3333333   0.1924510   0.3490196  )
         9           Ge  tau(   9) = (   0.1666667   0.2886751   0.2941176  )
        10           Ge  tau(  10) = (   0.1666667   0.4811261   0.3490196  )
        11           Ge  tau(  11) = (   0.0000000   0.5773503   0.2941176  )
        12           Ge  tau(  12) = (   0.0000000   0.7698012   0.3490196  )
        13           Ge  tau(  13) = (   0.6666667   0.0000000   0.2941176  )
        14           Ge  tau(  14) = (   0.6666667   0.1924510   0.3490196  )
        15           Ge  tau(  15) = (   0.5000000   0.2886751   0.2941176  )
        16           Ge  tau(  16) = (   0.5000000   0.4811261   0.3490196  )
        17           Ge  tau(  17) = (   0.3333333   0.5773503   0.2941176  )
        18           Ge  tau(  18) = (   0.3333333   0.7698012   0.3490196  )
        19           C   tau(  19) = (   0.0000000   0.0000000   0.0000000  )
        20           Si  tau(  20) = (   0.0000000   0.1443382   0.0000000  )
        21           C   tau(  21) = (  -0.1250000   0.2165064   0.0000000  )
        22           Si  tau(  22) = (  -0.1250000   0.3608446   0.0000000  )
        23           C   tau(  23) = (  -0.2500000   0.4330127   0.0000000  )
        24           Si  tau(  24) = (  -0.2500000   0.5773509   0.0000000  )
        25           C   tau(  25) = (  -0.3750000   0.6495191   0.0000000  )
        26           Si  tau(  26) = (  -0.3750000   0.7938573   0.0000000  )
        27           C   tau(  27) = (   0.2500000   0.0000000   0.0000000  )
        28           Si  tau(  28) = (   0.2500000   0.1443382   0.0000000  )
        29           C   tau(  29) = (   0.1250000   0.2165064   0.0000000  )
        30           Si  tau(  30) = (   0.1250000   0.3608446   0.0000000  )
        31           C   tau(  31) = (   0.0000000   0.4330127   0.0000000  )
        32           Si  tau(  32) = (   0.0000000   0.5773509   0.0000000  )
        33           C   tau(  33) = (  -0.1250000   0.6495191   0.0000000  )
        34           Si  tau(  34) = (  -0.1250000   0.7938573   0.0000000  )
        35           C   tau(  35) = (   0.5000000   0.0000000   0.0000000  )
        36           Si  tau(  36) = (   0.5000000   0.1443382   0.0000000  )
        37           C   tau(  37) = (   0.3750000   0.2165064   0.0000000  )
        38           Si  tau(  38) = (   0.3750000   0.3608446   0.0000000  )
        39           C   tau(  39) = (   0.2500000   0.4330127   0.0000000  )
        40           Si  tau(  40) = (   0.2500000   0.5773509   0.0000000  )
        41           C   tau(  41) = (   0.1250000   0.6495191   0.0000000  )
        42           Si  tau(  42) = (   0.1250000   0.7938573   0.0000000  )
        43           C   tau(  43) = (   0.7500000   0.0000000   0.0000000  )
        44           Si  tau(  44) = (   0.7500000   0.1443382   0.0000000  )
        45           C   tau(  45) = (   0.6250000   0.2165064   0.0000000  )
        46           Si  tau(  46) = (   0.6250000   0.3608446   0.0000000  )
        47           C   tau(  47) = (   0.5000000   0.4330127   0.0000000  )
        48           Si  tau(  48) = (   0.5000000   0.5773509   0.0000000  )
        49           C   tau(  49) = (   0.3750000   0.6495191   0.0000000  )
        50           Si  tau(  50) = (   0.3750000   0.7938573   0.0000000  )

   Crystallographic axes

     site n.     atom                  positions (cryst. coord.)
         1           Ge  tau(   1) = (  0.0000000  0.0000000  0.1800000  )
         2           Ge  tau(   2) = (  0.1111116  0.2222233  0.2136000  )
         3           Ge  tau(   3) = ( -0.0000000  0.3333333  0.1800000  )
         4           Ge  tau(   4) = (  0.1111116  0.5555566  0.2136000  )
         5           Ge  tau(   5) = ( -0.0000000  0.6666667  0.1800000  )
         6           Ge  tau(   6) = (  0.1111116  0.8888899  0.2136000  )
         7           Ge  tau(   7) = (  0.3333333  0.0000000  0.1800000  )
         8           Ge  tau(   8) = (  0.4444450  0.2222233  0.2136000  )
         9           Ge  tau(   9) = (  0.3333333  0.3333333  0.1800000  )
        10           Ge  tau(  10) = (  0.4444450  0.5555566  0.2136000  )
        11           Ge  tau(  11) = (  0.3333333  0.6666667  0.1800000  )
        12           Ge  tau(  12) = (  0.4444450  0.8888899  0.2136000  )
        13           Ge  tau(  13) = (  0.6666667  0.0000000  0.1800000  )
        14           Ge  tau(  14) = (  0.7777783  0.2222233  0.2136000  )
        15           Ge  tau(  15) = (  0.6666667  0.3333333  0.1800000  )
        16           Ge  tau(  16) = (  0.7777783  0.5555566  0.2136000  )
        17           Ge  tau(  17) = (  0.6666667  0.6666667  0.1800000  )
        18           Ge  tau(  18) = (  0.7777783  0.8888899  0.2136000  )
        19           C   tau(  19) = (  0.0000000  0.0000000  0.0000000  )
        20           Si  tau(  20) = (  0.0833337  0.1666674  0.0000000  )
        21           C   tau(  21) = (  0.0000000  0.2500000  0.0000000  )
        22           Si  tau(  22) = (  0.0833337  0.4166674  0.0000000  )
        23           C   tau(  23) = (  0.0000000  0.5000000  0.0000000  )
        24           Si  tau(  24) = (  0.0833337  0.6666674  0.0000000  )
        25           C   tau(  25) = (  0.0000000  0.7500000  0.0000000  )
        26           Si  tau(  26) = (  0.0833337  0.9166674  0.0000000  )
        27           C   tau(  27) = (  0.2500000  0.0000000  0.0000000  )
        28           Si  tau(  28) = (  0.3333337  0.1666674  0.0000000  )
        29           C   tau(  29) = (  0.2500000  0.2500000  0.0000000  )
        30           Si  tau(  30) = (  0.3333337  0.4166674  0.0000000  )
        31           C   tau(  31) = (  0.2500000  0.5000000  0.0000000  )
        32           Si  tau(  32) = (  0.3333337  0.6666674  0.0000000  )
        33           C   tau(  33) = (  0.2500000  0.7500000  0.0000000  )
        34           Si  tau(  34) = (  0.3333337  0.9166674  0.0000000  )
        35           C   tau(  35) = (  0.5000000  0.0000000  0.0000000  )
        36           Si  tau(  36) = (  0.5833337  0.1666674  0.0000000  )
        37           C   tau(  37) = (  0.5000000  0.2500000  0.0000000  )
        38           Si  tau(  38) = (  0.5833337  0.4166674  0.0000000  )
        39           C   tau(  39) = (  0.5000000  0.5000000  0.0000000  )
        40           Si  tau(  40) = (  0.5833337  0.6666674  0.0000000  )
        41           C   tau(  41) = (  0.5000000  0.7500000  0.0000000  )
        42           Si  tau(  42) = (  0.5833337  0.9166674  0.0000000  )
        43           C   tau(  43) = (  0.7500000  0.0000000  0.0000000  )
        44           Si  tau(  44) = (  0.8333337  0.1666674  0.0000000  )
        45           C   tau(  45) = (  0.7500000  0.2500000  0.0000000  )
        46           Si  tau(  46) = (  0.8333337  0.4166674  0.0000000  )
        47           C   tau(  47) = (  0.7500000  0.5000000  0.0000000  )
        48           Si  tau(  48) = (  0.8333337  0.6666674  0.0000000  )
        49           C   tau(  49) = (  0.7500000  0.7500000  0.0000000  )
        50           Si  tau(  50) = (  0.8333337  0.9166674  0.0000000  )

     number of k points=     3  Methfessel-Paxton smearing, width (Ry)=  0.0060
                       cart. coord. in units 2pi/alat
        k(    1) = (   0.0000000   0.0000000   0.0000000), wk =   0.2222222
        k(    2) = (   0.0000000   0.3849002   0.0000000), wk =   1.3333333
        k(    3) = (   0.3333333   0.5773503   0.0000000), wk =   0.4444444

                       cryst. coord.
        k(    1) = (   0.0000000   0.0000000   0.0000000), wk =   0.2222222
        k(    2) = (   0.0000000   0.3333333   0.0000000), wk =   1.3333333
        k(    3) = (   0.3333333   0.3333333   0.0000000), wk =   0.4444444

     Initial potential from superposition of free atoms
     Check: negative starting charge=   -0.006381

     starting charge  199.97158, renormalised to  200.00000

     negative rho (up, down):  6.382E-03 0.000E+00
     Starting wfcs are  800 randomized atomic wfcs

     Self-consistent Calculation

     iteration #  1     ecut=    30.00 Ry     beta= 0.70
     Davidson diagonalization with overlap
     ethr =  1.00E-02,  avg # of iterations =  2.0

     negative rho (up, down):  1.327E-03 0.000E+00

     total energy              =    -444.76492637 Ry
     Harris-Foulkes estimate   =    -451.60347510 Ry
     estimated scf accuracy    <      10.24316120 Ry

[...]

     negative rho (up, down):  2.040E-05 0.000E+00

[...]

     total energy              =    -448.64811827 Ry
     Harris-Foulkes estimate   =    -448.64815508 Ry
     estimated scf accuracy    <       0.00011612 Ry

     iteration # 11     ecut=    30.00 Ry     beta= 0.70
     Davidson diagonalization with overlap
     ethr =  5.81E-08,  avg # of iterations =  2.3

     End of self-consistent calculation

          k = 0.0000 0.0000 0.0000 ( 48515 PWs)   bands (ev):

   -15.7507 -14.7419 -14.7322 -14.7322 -14.7145 -14.7145 -14.7051 -12.9817
   -12.9782 -12.9532 -12.9532 -12.9490 -12.9490 -12.7293 -12.7293 -12.7282
   -12.0480 -10.9268 -10.9202 -10.9201 -10.9131 -10.9130 -10.9047  -9.7878
    -9.7877  -9.7870  -9.1212  -9.1202  -9.0863  -9.0863  -8.5521  -8.5521
    -8.5426  -8.5426  -8.5365  -8.5357  -6.9352  -6.9336  -6.9335  -6.9289
    -6.9288  -6.9263  -6.5450  -6.5450  -6.5283  -6.5283  -6.5265  -6.5241
    -6.3524  -6.3437  -6.3437  -6.3320  -6.3319  -6.3267  -5.8792  -4.7355
    -4.7250  -4.7250  -4.7067  -4.7067  -4.6964  -4.6563  -4.6563  -4.6555
    -4.5727  -4.5727  -4.1952  -3.9810  -3.9785  -3.9785  -3.9710  -3.9709
    -3.9674  -3.0739  -3.0738  -2.9138  -2.9136  -2.7906  -2.7906  -2.7246
    -2.7246  -2.6454  -2.6454  -2.6444  -2.6255  -2.6242  -2.6242  -2.6137
    -2.5993  -2.5993  -2.5158  -2.5158  -2.5130  -2.4217  -2.4185  -2.4185
    -1.4243  -1.4242  -0.8394  -0.8394  -0.7832  -0.7789  -0.6300   0.1158
     0.1158   0.1216   0.3632   0.3632   0.3755   0.7090   0.7296   0.7297
     1.0961   1.1030   1.1030   1.1360   1.3716   1.3716   1.4055   1.6900

     occupation numbers
     1.0000   1.0000   1.0000   1.0000   1.0000   1.0000   1.0000   1.0000
     1.0000   1.0000   1.0000   1.0000   1.0000   1.0000   1.0000   1.0000
     1.0000   1.0000   1.0000   1.0000   1.0000   1.0000   1.0000   1.0000
     1.0000   1.0000   1.0000   1.0000   1.0000   1.0000   1.0000   1.0000
     1.0000   1.0000   1.0000   1.0000   1.0000   1.0000   1.0000   1.0000
     1.0000   1.0000   1.0000   1.0000   1.0000   1.0000   1.0000   1.0000
     1.0000   1.0000   1.0000   1.0000   1.0000   1.0000   1.0000   1.0000
     1.0000   1.0000   1.0000   1.0000   1.0000   1.0000   1.0000   1.0000
     1.0000   1.0000   1.0000   1.0000   1.0000   1.0000   1.0000   1.0000
     1.0000   1.0000   1.0000   1.0000   1.0000   1.0000   1.0000   1.0000
     1.0000   1.0000   1.0000   1.0000   1.0000   1.0000   1.0000   1.0000
     1.0000   1.0000   1.0000   1.0000   1.0000   1.0000   1.0000   1.0000
     1.0000   1.0000   0.7831   0.7831   0.2371   0.2007  -0.0039  -0.0000
    -0.0000  -0.0000  -0.0000  -0.0000  -0.0000  -0.0000  -0.0000  -0.0000
    -0.0000  -0.0000  -0.0000  -0.0000  -0.0000  -0.0000  -0.0000  -0.0000

[...]

          k = 0.3333 0.5774 0.0000 ( 48552 PWs)   bands (ev):

   -15.4197 -15.3957 -15.3899 -14.3961 -14.3956 -14.3953 -13.5178 -13.5078
   -13.5072 -13.4894 -13.4890 -13.4800 -12.5156 -12.4893 -12.4847 -12.1335
   -11.6654 -11.6574 -11.6488 -10.5516 -10.5511 -10.5474  -9.9779  -9.9702
    -9.9682  -9.5134  -9.5024  -9.4909  -9.0911  -8.5307  -8.5274  -8.5228
    -8.5154  -8.5103  -8.5070  -8.3202  -8.3194  -8.3157  -7.5884  -7.4001
    -7.3962  -7.3922  -6.6881  -6.6875  -6.6873  -6.1313  -6.1255  -6.1168
    -5.6175  -5.5947  -5.5942  -4.9748  -4.9705  -4.9644  -4.9117  -4.9105
    -4.9021  -4.8960  -4.8868  -4.8854  -4.8580  -4.8578  -4.8573  -4.4084
    -4.4016  -4.3963  -4.3752  -4.3738  -4.3734  -3.7610  -3.7558  -3.7504
    -3.5871  -3.5802  -3.5748  -3.5412  -3.5398  -3.5252  -3.4667  -3.4541
    -3.4515  -3.3020  -3.3010  -3.2915  -2.8698  -2.8678  -2.8640  -2.3512
    -2.2846  -2.2737  -2.2259  -2.2257  -2.2195  -2.1027  -2.0422  -2.0333
    -1.8134  -1.6517  -1.6484  -1.6433  -0.3090  -0.2347  -0.2024   0.0884
     0.2469   0.4734   0.8662   0.8982   1.1403   1.2427   1.2721   1.2727
     1.2865   1.4162   1.4316   1.4384   1.4459   1.4481   1.4543   1.9614

     occupation numbers
     1.0000   1.0000   1.0000   1.0000   1.0000   1.0000   1.0000   1.0000
     1.0000   1.0000   1.0000   1.0000   1.0000   1.0000   1.0000   1.0000
     1.0000   1.0000   1.0000   1.0000   1.0000   1.0000   1.0000   1.0000
     1.0000   1.0000   1.0000   1.0000   1.0000   1.0000   1.0000   1.0000
     1.0000   1.0000   1.0000   1.0000   1.0000   1.0000   1.0000   1.0000
     1.0000   1.0000   1.0000   1.0000   1.0000   1.0000   1.0000   1.0000
     1.0000   1.0000   1.0000   1.0000   1.0000   1.0000   1.0000   1.0000
     1.0000   1.0000   1.0000   1.0000   1.0000   1.0000   1.0000   1.0000
     1.0000   1.0000   1.0000   1.0000   1.0000   1.0000   1.0000   1.0000
     1.0000   1.0000   1.0000   1.0000   1.0000   1.0000   1.0000   1.0000
     1.0000   1.0000   1.0000   1.0000   1.0000   1.0000   1.0000   1.0000
     1.0000   1.0000   1.0000   1.0000   1.0000   1.0000   1.0000   1.0000
     1.0000   1.0000   1.0000   1.0000  -0.0000  -0.0000  -0.0000  -0.0000
    -0.0000  -0.0000  -0.0000  -0.0000  -0.0000  -0.0000  -0.0000  -0.0000
    -0.0000  -0.0000  -0.0000  -0.0000  -0.0000  -0.0000  -0.0000  -0.0000

     the Fermi energy is    -0.8101 ev

!    total energy              =    -448.64809861 Ry
     Harris-Foulkes estimate   =    -448.64813920 Ry
     estimated scf accuracy    <       0.00004670 Ry

     The total energy is the sum of the following terms:

     one-electron contribution =   -3083.81139330 Ry
     hartree contribution      =    1579.55479575 Ry
     xc contribution           =    -135.78328284 Ry
     ewald contribution        =    1191.88442174 Ry
     Dispersion Correction     =      -0.49216029 Ry
     smearing contrib. (-TS)   =      -0.00047967 Ry

     convergence has been achieved in  11 iterations

     Writing output data file Ge+SiC_II__3.6.save/

     General routines

     Parallel routines

   This run was terminated on:  13:46:28  16Apr2020

   JOB DONE.