     Program PWSCF v.6.8 starts on  8Aug2021 at 15:10:15

     Waiting for input...
     Reading input from standard input

     Current dimensions of program PWSCF are:
     Max number of different atomic species (ntypx) = 10
     Max number of k-points (npk) =  40000
     Max angular momentum in pseudopotentials (lmaxx) =  4

     IMPORTANT: XC functional enforced from input :
     Exchange-correlation= PBE
                           (   1   4   3   4   0   0   0)
     Any further DFT definition will be discarded
     Please, verify this is what you really want

     DFT-D3 Dispersion Correction (3-body terms):
       Reference C6 values for interpolation:

         atom   Coordination number   C6
         C          0.000            98.23
         C          0.987            86.49
         C          1.998            58.72
         C          2.999            51.56
         C          3.984            36.41
         Si         0.000           635.71
         Si         0.951           540.53
         Si         1.944           466.25
         Si         2.941           443.01
         Si         3.868           299.55
         Ge         0.000           727.09
         Ge         0.943           633.70
         Ge         1.945           573.31
         Ge         2.919           459.90
         Ge         3.897           360.58

       Values used:

         atom   Coordination number  R0_AB[au]  C6      C8
         C          3.008            2.750     51.31   1484.08
         Ge         3.943            3.649    361.95  33336.41
         C          3.008            2.750     51.31   1484.08
         Ge         3.943            3.649    361.95  33336.39
         C          3.008            2.750     51.31   1484.08
         Ge         3.943            3.649    361.95  33336.43
         C          3.008            2.750     51.31   1484.08
         Ge         3.943            3.649    361.95  33336.41
         C          2.989            2.750     51.38   1486.09
         Si         3.510            3.583    340.50  24354.89
         C          2.989            2.750     51.38   1486.09
         Si         3.510            3.583    340.49  24354.35
         C          2.989            2.750     51.38   1486.09
         Si         3.510            3.583    340.49  24354.35
         C          2.989            2.750     51.38   1486.10
         Si         3.510            3.583    340.49  24353.81

         Molecular C6 ( Ry / a.u.^6 ) =     42659.54

     Using Slab Decomposition

     bravais-lattice index     =            4
     lattice parameter (alat)  =      12.2794  a.u.
     unit-cell volume          =    6169.1688 (a.u.)^3
     number of atoms/cell      =           16
     number of atomic types    =            3
     number of electrons       =        64.00
     number of Kohn-Sham states=           38
     kinetic-energy cutoff     =      40.0000  Ry
     charge density cutoff     =     200.0000  Ry
     scf convergence threshold =      1.0E-06
     mixing beta               =       0.7000
     number of iterations used =            8  plain     mixing
     Exchange-correlation= PBE
                           (   1   4   3   4   0   0   0)

     celldm(1)=  12.279440  celldm(2)=   0.000000  celldm(3)=   3.847338
     celldm(4)=   0.000000  celldm(5)=   0.000000  celldm(6)=   0.000000

     crystal axes: (cart. coord. in units of alat)
               a(1) = (   1.000000   0.000000   0.000000 )
               a(2) = (  -0.500000   0.866025   0.000000 )
               a(3) = (   0.000000   0.000000   3.847338 )

     reciprocal axes: (cart. coord. in units 2 pi/alat)
               b(1) = (  1.000000  0.577350 -0.000000 )
               b(2) = (  0.000000  1.154701  0.000000 )
               b(3) = (  0.000000 -0.000000  0.259920 )

     PseudoPot. # 1 for C  read from file:
     ./pseudo/C.pbe-n-rrkjus_psl.1.0.0.UPF
     MD5 check sum: 1fdd950c42eb37d8afe3dd2f8d12311e
     Pseudo is Ultrasoft + core correction, Zval =  4.0
     Generated using &quot;atomic&quot; code by A. Dal Corso  v.6.3MaX
     Using radial grid of 1073 points,  4 beta functions with:
                l(1) =   0
                l(2) =   0
                l(3) =   1
                l(4) =   1
     Q(r) pseudized with 0 coefficients

     PseudoPot. # 2 for Ge read from file:
     ./pseudo/Ge.pbe-n-rrkjus_psl.1.0.0.UPF
     MD5 check sum: a23a7f3f7456476e534e54484b27d8e8
     Pseudo is Ultrasoft + core correction, Zval =  4.0
     Generated using &quot;atomic&quot; code by A. Dal Corso  v.6.3
     Using radial grid of 1207 points,  4 beta functions with:
                l(1) =   0
                l(2) =   0
                l(3) =   1
                l(4) =   1
     Q(r) pseudized with 0 coefficients

     PseudoPot. # 3 for Si read from file:
     ./pseudo/Si.pbe-n-rrkjus_psl.1.0.0.UPF
     MD5 check sum: fa25574f73a70a4139f2adfbefec430c
     Pseudo is Ultrasoft + core correction, Zval =  4.0
     Generated using &quot;atomic&quot; code by A. Dal Corso  v.6.3
     Using radial grid of 1141 points,  6 beta functions with:
                l(1) =   0
                l(2) =   0
                l(3) =   1
                l(4) =   1
                l(5) =   2
                l(6) =   2
     Q(r) pseudized with 0 coefficients

     atomic species   valence    mass     pseudopotential
        C              4.00    12.01070     C ( 1.00)
        Ge             4.00    72.64000     Ge( 1.00)
        Si             4.00    28.08550     Si( 1.00)

     No symmetry found

                                    s                        frac. trans.

      isym =  1     identity

 cryst.   s( 1) = (     1          0          0      )
                  (     0          1          0      )
                  (     0          0          1      )

 cart.    s( 1) = (  1.0000000  0.0000000  0.0000000 )
                  (  0.0000000  1.0000000  0.0000000 )
                  (  0.0000000  0.0000000  1.0000000 )

     point group C_1 (1)
     there are  1 classes
     the character table:

       E
A      1.00

     the symmetry operations in each class and the name of the first element:

     E        1
          identity

   Cartesian axes

     site n.     atom                  positions (alat units)
         1           C   tau(   1) = (   0.1250057   0.0721721   2.2218056  )
         2           Ge  tau(   2) = (  -0.1250057   0.2165162   2.2218056  )
         3           C   tau(   3) = (  -0.1250057   0.5052045   2.2218056  )
         4           Ge  tau(   4) = (  -0.3750171   0.6495486   2.2218056  )
         5           C   tau(   5) = (   0.6250284   0.0721721   2.2218056  )
         6           Ge  tau(   6) = (   0.3750171   0.2165162   2.2218056  )
         7           C   tau(   7) = (   0.3750171   0.5052045   2.2218056  )
         8           Ge  tau(   8) = (   0.1250057   0.6495486   2.2218056  )
         9           C   tau(   9) = (   0.0000000   0.0000000   1.5389351  )
        10           Si  tau(  10) = (   0.0000000   0.2886883   1.5389351  )
        11           C   tau(  11) = (  -0.2500114   0.4330324   1.5389351  )
        12           Si  tau(  12) = (  -0.2500114   0.7217207   1.5389351  )
        13           C   tau(  13) = (   0.5000228   0.0000000   1.5389351  )
        14           Si  tau(  14) = (   0.5000228   0.2886883   1.5389351  )
        15           C   tau(  15) = (   0.2500114   0.4330324   1.5389351  )
        16           Si  tau(  16) = (   0.2500114   0.7217207   1.5389351  )

   Crystallographic axes

     site n.     atom                  positions (cryst. coord.)
         1           C   tau(   1) = (  0.1666742  0.0833371  0.5774917  )
         2           Ge  tau(   2) = ( -0.0000000  0.2500114  0.5774917  )
         3           C   tau(   3) = (  0.1666742  0.5833599  0.5774917  )
         4           Ge  tau(   4) = ( -0.0000000  0.7500342  0.5774917  )
         5           C   tau(   5) = (  0.6666970  0.0833371  0.5774917  )
         6           Ge  tau(   6) = (  0.5000227  0.2500114  0.5774917  )
         7           C   tau(   7) = (  0.6666970  0.5833599  0.5774917  )
         8           Ge  tau(   8) = (  0.5000227  0.7500342  0.5774917  )
         9           C   tau(   9) = (  0.0000000  0.0000000  0.4000000  )
        10           Si  tau(  10) = (  0.1666743  0.3333485  0.4000000  )
        11           C   tau(  11) = (  0.0000000  0.5000228  0.4000000  )
        12           Si  tau(  12) = (  0.1666743  0.8333713  0.4000000  )
        13           C   tau(  13) = (  0.5000228  0.0000000  0.4000000  )
        14           Si  tau(  14) = (  0.6666970  0.3333485  0.4000000  )
        15           C   tau(  15) = (  0.5000228  0.5000228  0.4000000  )
        16           Si  tau(  16) = (  0.6666970  0.8333713  0.4000000  )

     number of k points=    20  Marzari-Vanderbilt smearing, width (Ry)=  0.0500
                       cart. coord. in units 2pi/alat
        k(    1) = (   0.0000000   0.0000000   0.0000000), wk =   0.0555556
        k(    2) = (   0.0000000   0.1924501   0.0000000), wk =   0.1111111
        k(    3) = (   0.0000000   0.3849002   0.0000000), wk =   0.1111111
        k(    4) = (   0.0000000  -0.5773503   0.0000000), wk =   0.0555556
        k(    5) = (   0.1666667   0.2886751   0.0000000), wk =   0.1111111
        k(    6) = (   0.1666667   0.4811252   0.0000000), wk =   0.1111111
        k(    7) = (   0.3333333   0.5773503   0.0000000), wk =   0.1111111
        k(    8) = (  -0.1666667   0.0962250   0.0000000), wk =   0.1111111
        k(    9) = (   0.1666667   0.0962250   0.0000000), wk =   0.1111111
        k(   10) = (  -0.3333333   0.1924501   0.0000000), wk =   0.1111111
        k(   11) = (   0.3333333   0.1924501   0.0000000), wk =   0.1111111
        k(   12) = (   0.5000000  -0.2886751   0.0000000), wk =   0.0555556
        k(   13) = (  -0.5000000  -0.2886751   0.0000000), wk =   0.0555556
        k(   14) = (  -0.1666667   0.2886751   0.0000000), wk =   0.1111111
        k(   15) = (   0.3333333   0.0000000   0.0000000), wk =   0.1111111
        k(   16) = (  -0.1666667   0.4811252   0.0000000), wk =   0.1111111
        k(   17) = (  -0.3333333   0.3849002   0.0000000), wk =   0.1111111
        k(   18) = (   0.5000000   0.0962250   0.0000000), wk =   0.1111111
        k(   19) = (  -0.3333333  -0.3849002   0.0000000), wk =   0.1111111
        k(   20) = (   0.5000000  -0.0962250   0.0000000), wk =   0.1111111

                       cryst. coord.
        k(    1) = (   0.0000000   0.0000000   0.0000000), wk =   0.0555556
        k(    2) = (   0.0000000   0.1666667   0.0000000), wk =   0.1111111
        k(    3) = (   0.0000000   0.3333333   0.0000000), wk =   0.1111111
        k(    4) = (   0.0000000  -0.5000000   0.0000000), wk =   0.0555556
        k(    5) = (   0.1666667   0.1666667   0.0000000), wk =   0.1111111
        k(    6) = (   0.1666667   0.3333333   0.0000000), wk =   0.1111111
        k(    7) = (   0.3333333   0.3333333   0.0000000), wk =   0.1111111
        k(    8) = (  -0.1666667   0.1666667   0.0000000), wk =   0.1111111
        k(    9) = (   0.1666667   0.0000000   0.0000000), wk =   0.1111111
        k(   10) = (  -0.3333333   0.3333333   0.0000000), wk =   0.1111111
        k(   11) = (   0.3333333   0.0000000   0.0000000), wk =   0.1111111
        k(   12) = (   0.5000000  -0.5000000   0.0000000), wk =   0.0555556
        k(   13) = (  -0.5000000   0.0000000   0.0000000), wk =   0.0555556
        k(   14) = (  -0.1666667   0.3333333   0.0000000), wk =   0.1111111
        k(   15) = (   0.3333333  -0.1666667   0.0000000), wk =   0.1111111
        k(   16) = (  -0.1666667   0.5000000   0.0000000), wk =   0.1111111
        k(   17) = (  -0.3333333   0.5000000   0.0000000), wk =   0.1111111
        k(   18) = (   0.5000000  -0.1666667   0.0000000), wk =   0.1111111
        k(   19) = (  -0.3333333  -0.1666667   0.0000000), wk =   0.1111111
        k(   20) = (   0.5000000  -0.3333333   0.0000000), wk =   0.1111111

     Check: negative core charge=   -0.000010

     Initial potential from superposition of free atoms

     starting charge   63.99436, renormalised to   64.00000

     negative rho (up, down):  4.245E-04 0.000E+00
     Starting wfcs are   64 randomized atomic wfcs

     Self-consistent Calculation

     iteration #  1     ecut=    40.00 Ry     beta= 0.70
     Davidson diagonalization with overlap

     ethr =  1.00E-02,  avg # of iterations =  2.2

     negative rho (up, down):  6.766E-04 0.000E+00

     WARNING: integrated charge=    64.00010738, expected=    64.00000000

     total energy              =    -189.52153690 Ry
     estimated scf accuracy    <       4.57761532 Ry

[...]

     ethr =  7.15E-03,  avg # of iterations =  3.3

[...]

     ethr =  6.83E-03,  avg # of iterations =  2.0
     Minimization algorithm failed to find Fermi energy: reverting to bisection
     Possible cause: smearing is larger than the electronic band-gap.

[...]

     WARNING: integrated charge=    64.00001648, expected=    64.00000000

[...]

     c_bands:  1 eigenvalues not converged
     c_bands:  1 eigenvalues not converged
     ethr =  3.74E-05,  avg # of iterations = 10.6
     Minimization algorithm failed to find Fermi energy: reverting to bisection
     Possible cause: smearing is larger than the electronic band-gap.

[...]

     total energy              =    -191.49502809 Ry
     estimated scf accuracy    <       0.00000343 Ry

     iteration # 13     ecut=    40.00 Ry     beta= 0.70
     Davidson diagonalization with overlap

     ethr =  1.76E-09,  avg # of iterations =  2.0
     Minimization algorithm failed to find Fermi energy: reverting to bisection
     Possible cause: smearing is larger than the electronic band-gap.

     negative rho (up, down):  7.280E-04 0.000E+00

     End of self-consistent calculation

          k = 0.0000 0.0000 0.0000 ( 26399 PWs)   bands (ev):

   -16.1672 -15.3921 -13.2158 -13.2149 -13.2141 -12.8170 -12.8165 -12.8157
   -10.7758 -10.7750 -10.7742  -9.9289  -9.9282  -9.9275  -6.0187  -5.4825
    -5.3085  -5.3080  -5.3075  -5.1968  -5.1961  -5.1960  -3.7854  -3.7846
    -3.4177  -3.4169  -3.0727  -2.9899  -2.9898  -2.8686  -2.8685  -2.7820
    -0.1976  -0.1974  -0.1053   0.1090   0.2183   0.3254

     occupation numbers
     1.0000   1.0000   1.0000   1.0000   1.0000   1.0000   1.0000   1.0000
     1.0000   1.0000   1.0000   1.0000   1.0000   1.0000   1.0000   1.0000
     1.0000   1.0000   1.0000   1.0000   1.0000   1.0000   1.0113   1.0114
     1.0472   1.0473   1.0833   1.0801   1.0801   1.0581   1.0581   1.0266
     0.0000   0.0000   0.0000   0.0000   0.0000   0.0000

[...]

          k =-0.1667 0.0962 0.0000 ( 26387 PWs)   bands (ev):

[...]

          k =-0.3333-0.3849 0.0000 ( 26358 PWs)   bands (ev):

[...]

          k = 0.5000-0.0962 0.0000 ( 26358 PWs)   bands (ev):

   -15.4136 -14.7895 -14.6913 -14.1915 -14.1237 -13.5952 -12.7848 -12.4876
   -10.4933  -9.5237  -8.8746  -8.3214  -8.0227  -7.6161  -7.4631  -7.1863
    -6.4873  -6.2958  -6.1131  -5.9488  -5.2284  -5.1119  -5.0779  -4.7395
    -4.6418  -4.5839  -4.5572  -4.1420  -3.9832  -3.5764  -2.6024  -2.4012
    -0.1190   0.2765   1.2911   1.4058   1.5282   1.5602

     occupation numbers
     1.0000   1.0000   1.0000   1.0000   1.0000   1.0000   1.0000   1.0000
     1.0000   1.0000   1.0000   1.0000   1.0000   1.0000   1.0000   1.0000
     1.0000   1.0000   1.0000   1.0000   1.0000   1.0000   1.0000   1.0000
     1.0000   1.0001   1.0001   1.0015   1.0040   1.0279   0.9146   0.7240
     0.0000   0.0000   0.0000   0.0000   0.0000   0.0000

     the Fermi energy is    -2.1021 ev

!    total energy              =    -191.49502791 Ry
     estimated scf accuracy    <       0.00000043 Ry
     smearing contrib. (-TS)   =       0.03966187 Ry
     internal energy E=F+TS    =    -191.53468977 Ry

     The total energy is F=E-TS. E is the sum of the following terms:
     one-electron contribution =   -1498.78098607 Ry
     hartree contribution      =     762.28422456 Ry
     xc contribution           =     -87.14952424 Ry
     ewald contribution        =     632.18573303 Ry
     DFT-D3 Dispersion         =      -0.07413706 Ry

     convergence has been achieved in  13 iterations

     Writing output data file ./work/sic_gec2.save/

     General routines

   This run was terminated on:  15:41:13   8Aug2021

   JOB DONE.