     Program PWSCF v.6.8 starts on  8Aug2021 at 15:41:13

     Waiting for input...
     Reading input from standard input

     Current dimensions of program PWSCF are:
     Max number of different atomic species (ntypx) = 10
     Max number of k-points (npk) =  40000
     Max angular momentum in pseudopotentials (lmaxx) =  4

     IMPORTANT: XC functional enforced from input :
     Exchange-correlation= PBE
                           (   1   4   3   4   0   0   0)
     Any further DFT definition will be discarded
     Please, verify this is what you really want

     DFT-D3 Dispersion Correction (3-body terms):
       Reference C6 values for interpolation:

         atom   Coordination number   C6
         C          0.000            98.23
         C          0.987            86.49
         C          1.998            58.72
         C          2.999            51.56
         C          3.984            36.41
         Si         0.000           635.71
         Si         0.951           540.53
         Si         1.944           466.25
         Si         2.941           443.01
         Si         3.868           299.55
         Ge         0.000           727.09
         Ge         0.943           633.70
         Ge         1.945           573.31
         Ge         2.919           459.90
         Ge         3.897           360.58

       Values used:

         atom   Coordination number  R0_AB[au]  C6      C8
         C          3.008            2.750     51.31   1484.06
         Ge         3.944            3.649    361.94  33335.89
         C          3.008            2.750     51.31   1484.06
         Ge         3.944            3.649    361.94  33335.91
         C          3.008            2.750     51.31   1484.06
         Ge         3.944            3.649    361.94  33335.91
         C          3.008            2.750     51.31   1484.06
         Ge         3.944            3.649    361.94  33335.93
         C          2.989            2.750     51.38   1486.06
         Si         3.511            3.583    340.40  24347.62
         C          2.989            2.750     51.38   1486.07
         Si         3.511            3.583    340.39  24347.08
         C          2.989            2.750     51.38   1486.07
         Si         3.511            3.583    340.39  24347.08
         C          2.989            2.750     51.38   1486.07
         Si         3.511            3.583    340.38  24346.54

         Molecular C6 ( Ry / a.u.^6 ) =     42654.77

     Using Slab Decomposition

     bravais-lattice index     =            4
     lattice parameter (alat)  =      12.2794  a.u.
     unit-cell volume          =    6169.1688 (a.u.)^3
     number of atoms/cell      =           16
     number of atomic types    =            3
     number of electrons       =        64.00
     number of Kohn-Sham states=           38
     kinetic-energy cutoff     =      40.0000  Ry
     charge density cutoff     =     200.0000  Ry
     scf convergence threshold =      1.0E-06
     mixing beta               =       0.7000
     number of iterations used =            8  plain     mixing
     Exchange-correlation= PBE
                           (   1   4   3   4   0   0   0)

     celldm(1)=  12.279440  celldm(2)=   0.000000  celldm(3)=   3.847338
     celldm(4)=   0.000000  celldm(5)=   0.000000  celldm(6)=   0.000000

     crystal axes: (cart. coord. in units of alat)
               a(1) = (   1.000000   0.000000   0.000000 )
               a(2) = (  -0.500000   0.866025   0.000000 )
               a(3) = (   0.000000   0.000000   3.847338 )

     reciprocal axes: (cart. coord. in units 2 pi/alat)
               b(1) = (  1.000000  0.577350 -0.000000 )
               b(2) = (  0.000000  1.154701  0.000000 )
               b(3) = (  0.000000 -0.000000  0.259920 )

     PseudoPot. # 1 for C  read from file:
     ./pseudo/C.pbe-n-rrkjus_psl.1.0.0.UPF
     MD5 check sum: 1fdd950c42eb37d8afe3dd2f8d12311e
     Pseudo is Ultrasoft + core correction, Zval =  4.0
     Generated using &quot;atomic&quot; code by A. Dal Corso  v.6.3MaX
     Using radial grid of 1073 points,  4 beta functions with:
                l(1) =   0
                l(2) =   0
                l(3) =   1
                l(4) =   1
     Q(r) pseudized with 0 coefficients

     PseudoPot. # 2 for Ge read from file:
     ./pseudo/Ge.pbe-n-kjpaw_psl.1.0.0.UPF
     MD5 check sum: 86cd6a1ce4ead6fa7a4673d64b86017a
     Pseudo is Projector augmented-wave + core cor, Zval =  4.0
     Generated using &quot;atomic&quot; code by A. Dal Corso  v.6.3
     Shape of augmentation charge: PSQ
     Using radial grid of 1207 points,  4 beta functions with:
                l(1) =   0
                l(2) =   0
                l(3) =   1
                l(4) =   1
     Q(r) pseudized with 0 coefficients

     PseudoPot. # 3 for Si read from file:
     ./pseudo/Si.pbe-n-rrkjus_psl.1.0.0.UPF
     MD5 check sum: fa25574f73a70a4139f2adfbefec430c
     Pseudo is Ultrasoft + core correction, Zval =  4.0
     Generated using &quot;atomic&quot; code by A. Dal Corso  v.6.3
     Using radial grid of 1141 points,  6 beta functions with:
                l(1) =   0
                l(2) =   0
                l(3) =   1
                l(4) =   1
                l(5) =   2
                l(6) =   2
     Q(r) pseudized with 0 coefficients

     atomic species   valence    mass     pseudopotential
        C              4.00    12.01070     C ( 1.00)
        Ge             4.00    72.64000     Ge( 1.00)
        Si             4.00    28.08550     Si( 1.00)

     No symmetry found

                                    s                        frac. trans.

      isym =  1     identity

 cryst.   s( 1) = (     1          0          0      )
                  (     0          1          0      )
                  (     0          0          1      )

 cart.    s( 1) = (  1.0000000  0.0000000  0.0000000 )
                  (  0.0000000  1.0000000  0.0000000 )
                  (  0.0000000  0.0000000  1.0000000 )

     point group C_1 (1)
     there are  1 classes
     the character table:

       E
A      1.00

     the symmetry operations in each class and the name of the first element:

     E        1
          identity

   Cartesian axes

     site n.     atom                  positions (alat units)
         1           C   tau(   1) = (  -0.0000001   0.2886883   2.2136276  )
         2           Ge  tau(   2) = (  -0.0000001  -0.0000000   2.2136276  )
         3           C   tau(   3) = (  -0.2500115   0.7217207   2.2136276  )
         4           Ge  tau(   4) = (  -0.2500115   0.4330324   2.2136276  )
         5           C   tau(   5) = (   0.5000227   0.2886883   2.2136276  )
         6           Ge  tau(   6) = (   0.5000227  -0.0000000   2.2136276  )
         7           C   tau(   7) = (   0.2500113   0.7217207   2.2136276  )
         8           Ge  tau(   8) = (   0.2500113   0.4330324   2.2136276  )
         9           C   tau(   9) = (   0.0000000   0.0000000   1.5389351  )
        10           Si  tau(  10) = (   0.0000000   0.2886883   1.5389351  )
        11           C   tau(  11) = (  -0.2500114   0.4330324   1.5389351  )
        12           Si  tau(  12) = (  -0.2500114   0.7217207   1.5389351  )
        13           C   tau(  13) = (   0.5000228   0.0000000   1.5389351  )
        14           Si  tau(  14) = (   0.5000228   0.2886883   1.5389351  )
        15           C   tau(  15) = (   0.2500114   0.4330324   1.5389351  )
        16           Si  tau(  16) = (   0.2500114   0.7217207   1.5389351  )

   Crystallographic axes

     site n.     atom                  positions (cryst. coord.)
         1           C   tau(   1) = (  0.1666742  0.3333485  0.5753661  )
         2           Ge  tau(   2) = ( -0.0000001 -0.0000000  0.5753661  )
         3           C   tau(   3) = (  0.1666742  0.8333713  0.5753661  )
         4           Ge  tau(   4) = ( -0.0000001  0.5000228  0.5753661  )
         5           C   tau(   5) = (  0.6666969  0.3333485  0.5753661  )
         6           Ge  tau(   6) = (  0.5000227 -0.0000000  0.5753661  )
         7           C   tau(   7) = (  0.6666969  0.8333713  0.5753661  )
         8           Ge  tau(   8) = (  0.5000227  0.5000228  0.5753661  )
         9           C   tau(   9) = (  0.0000000  0.0000000  0.4000000  )
        10           Si  tau(  10) = (  0.1666743  0.3333485  0.4000000  )
        11           C   tau(  11) = (  0.0000000  0.5000228  0.4000000  )
        12           Si  tau(  12) = (  0.1666743  0.8333713  0.4000000  )
        13           C   tau(  13) = (  0.5000228  0.0000000  0.4000000  )
        14           Si  tau(  14) = (  0.6666970  0.3333485  0.4000000  )
        15           C   tau(  15) = (  0.5000228  0.5000228  0.4000000  )
        16           Si  tau(  16) = (  0.6666970  0.8333713  0.4000000  )

     number of k points=    20  Marzari-Vanderbilt smearing, width (Ry)=  0.0500
                       cart. coord. in units 2pi/alat
        k(    1) = (   0.0000000   0.0000000   0.0000000), wk =   0.0555556
        k(    2) = (   0.0000000   0.1924501   0.0000000), wk =   0.1111111
        k(    3) = (   0.0000000   0.3849002   0.0000000), wk =   0.1111111
        k(    4) = (   0.0000000  -0.5773503   0.0000000), wk =   0.0555556
        k(    5) = (   0.1666667   0.2886751   0.0000000), wk =   0.1111111
        k(    6) = (   0.1666667   0.4811252   0.0000000), wk =   0.1111111
        k(    7) = (   0.3333333   0.5773503   0.0000000), wk =   0.1111111
        k(    8) = (  -0.1666667   0.0962250   0.0000000), wk =   0.1111111
        k(    9) = (   0.1666667   0.0962250   0.0000000), wk =   0.1111111
        k(   10) = (  -0.3333333   0.1924501   0.0000000), wk =   0.1111111
        k(   11) = (   0.3333333   0.1924501   0.0000000), wk =   0.1111111
        k(   12) = (   0.5000000  -0.2886751   0.0000000), wk =   0.0555556
        k(   13) = (  -0.5000000  -0.2886751   0.0000000), wk =   0.0555556
        k(   14) = (  -0.1666667   0.2886751   0.0000000), wk =   0.1111111
        k(   15) = (   0.3333333   0.0000000   0.0000000), wk =   0.1111111
        k(   16) = (  -0.1666667   0.4811252   0.0000000), wk =   0.1111111
        k(   17) = (  -0.3333333   0.3849002   0.0000000), wk =   0.1111111
        k(   18) = (   0.5000000   0.0962250   0.0000000), wk =   0.1111111
        k(   19) = (  -0.3333333  -0.3849002   0.0000000), wk =   0.1111111
        k(   20) = (   0.5000000  -0.0962250   0.0000000), wk =   0.1111111

                       cryst. coord.
        k(    1) = (   0.0000000   0.0000000   0.0000000), wk =   0.0555556
        k(    2) = (   0.0000000   0.1666667   0.0000000), wk =   0.1111111
        k(    3) = (   0.0000000   0.3333333   0.0000000), wk =   0.1111111
        k(    4) = (   0.0000000  -0.5000000   0.0000000), wk =   0.0555556
        k(    5) = (   0.1666667   0.1666667   0.0000000), wk =   0.1111111
        k(    6) = (   0.1666667   0.3333333   0.0000000), wk =   0.1111111
        k(    7) = (   0.3333333   0.3333333   0.0000000), wk =   0.1111111
        k(    8) = (  -0.1666667   0.1666667   0.0000000), wk =   0.1111111
        k(    9) = (   0.1666667   0.0000000   0.0000000), wk =   0.1111111
        k(   10) = (  -0.3333333   0.3333333   0.0000000), wk =   0.1111111
        k(   11) = (   0.3333333   0.0000000   0.0000000), wk =   0.1111111
        k(   12) = (   0.5000000  -0.5000000   0.0000000), wk =   0.0555556
        k(   13) = (  -0.5000000   0.0000000   0.0000000), wk =   0.0555556
        k(   14) = (  -0.1666667   0.3333333   0.0000000), wk =   0.1111111
        k(   15) = (   0.3333333  -0.1666667   0.0000000), wk =   0.1111111
        k(   16) = (  -0.1666667   0.5000000   0.0000000), wk =   0.1111111
        k(   17) = (  -0.3333333   0.5000000   0.0000000), wk =   0.1111111
        k(   18) = (   0.5000000  -0.1666667   0.0000000), wk =   0.1111111
        k(   19) = (  -0.3333333  -0.1666667   0.0000000), wk =   0.1111111
        k(   20) = (   0.5000000  -0.3333333   0.0000000), wk =   0.1111111

     Check: negative core charge=   -0.000010

     Initial potential from superposition of free atoms

     starting charge   63.99436, renormalised to   64.00000

     negative rho (up, down):  4.344E-04 0.000E+00
     Starting wfcs are   64 randomized atomic wfcs

     Self-consistent Calculation

     iteration #  1     ecut=    40.00 Ry     beta= 0.70
     Davidson diagonalization with overlap

     ethr =  1.00E-02,  avg # of iterations =  2.3

     negative rho (up, down):  7.471E-04 0.000E+00

     WARNING: integrated charge=    64.00008983, expected=    64.00000000

     total energy              =    -798.86198566 Ry
     estimated scf accuracy    <       4.56620067 Ry

[...]

     ethr =  7.13E-03,  avg # of iterations =  3.3

[...]

     ethr =  6.76E-03,  avg # of iterations =  2.0
     Minimization algorithm failed to find Fermi energy: reverting to bisection
     Possible cause: smearing is larger than the electronic band-gap.

[...]

     WARNING: integrated charge=    64.00001071, expected=    64.00000000

[...]

     total energy              =    -800.82937634 Ry
     estimated scf accuracy    <       0.00000135 Ry

     iteration # 12     ecut=    40.00 Ry     beta= 0.70
     Davidson diagonalization with overlap

     ethr =  2.11E-09,  avg # of iterations =  2.3
     Minimization algorithm failed to find Fermi energy: reverting to bisection
     Possible cause: smearing is larger than the electronic band-gap.

     negative rho (up, down):  8.104E-04 0.000E+00

     End of self-consistent calculation

          k = 0.0000 0.0000 0.0000 ( 26399 PWs)   bands (ev):

   -16.1665 -15.3914 -13.2146 -13.2139 -13.2135 -12.8161 -12.8155 -12.8149
   -10.7739 -10.7733 -10.7727  -9.9278  -9.9272  -9.9268  -6.0358  -5.4640
    -5.3064  -5.3060  -5.3058  -5.1953  -5.1948  -5.1946  -3.7842  -3.7833
    -3.4156  -3.4147  -3.0860  -3.0855  -3.0854  -2.7739  -2.7735  -2.7733
    -0.1363  -0.1361  -0.1355   0.1337   0.2807   0.2813

     occupation numbers
     1.0000   1.0000   1.0000   1.0000   1.0000   1.0000   1.0000   1.0000
     1.0000   1.0000   1.0000   1.0000   1.0000   1.0000   1.0000   1.0000
     1.0000   1.0000   1.0000   1.0000   1.0000   1.0000   1.0110   1.0110
     1.0464   1.0465   1.0829   1.0829   1.0829   1.0266   1.0264   1.0264
     0.0000   0.0000   0.0000   0.0000   0.0000   0.0000

[...]

          k =-0.1667 0.0962 0.0000 ( 26387 PWs)   bands (ev):

[...]

          k =-0.3333-0.3849 0.0000 ( 26358 PWs)   bands (ev):

[...]

          k = 0.5000-0.0962 0.0000 ( 26358 PWs)   bands (ev):

   -15.4128 -14.7887 -14.6906 -14.1905 -14.1230 -13.5944 -12.7840 -12.4869
   -10.4909  -9.5226  -8.8731  -8.3205  -8.0204  -7.6147  -7.4623  -7.1848
    -6.4857  -6.2947  -6.1117  -5.9469  -5.2474  -5.1110  -5.0756  -4.7195
    -4.6411  -4.6076  -4.5537  -4.1184  -4.0036  -3.5566  -2.6331  -2.3869
    -0.0079   0.2023   1.3116   1.3850   1.5616   1.6176

     occupation numbers
     1.0000   1.0000   1.0000   1.0000   1.0000   1.0000   1.0000   1.0000
     1.0000   1.0000   1.0000   1.0000   1.0000   1.0000   1.0000   1.0000
     1.0000   1.0000   1.0000   1.0000   1.0000   1.0000   1.0000   1.0000
     1.0000   1.0000   1.0001   1.0017   1.0034   1.0291   0.9441   0.7175
     0.0000   0.0000   0.0000   0.0000   0.0000   0.0000

     the Fermi energy is    -2.0940 ev

!    total energy              =    -800.82937577 Ry
     estimated scf accuracy    <       0.00000089 Ry
     smearing contrib. (-TS)   =       0.03895558 Ry
     internal energy E=F+TS    =    -800.86833135 Ry

     The total energy is F=E-TS. E is the sum of the following terms:
     one-electron contribution =   -1509.90031194 Ry
     hartree contribution      =     768.71904580 Ry
     xc contribution           =     -87.15391620 Ry
     ewald contribution        =     638.59884293 Ry
     DFT-D3 Dispersion         =      -0.07498042 Ry
     one-center paw contrib.   =    -611.05701152 Ry
      -> PAW hartree energy AE =      19.48395557 Ry
      -> PAW hartree energy PS =     -19.46613229 Ry
      -> PAW xc energy AE      =    -636.32727275 Ry
      -> PAW xc energy PS      =      25.25243796 Ry
      -> total E_H with PAW    =     768.73686907 Ry
      -> total E_XC with PAW   =    -698.22875099 Ry

     convergence has been achieved in  12 iterations

     Writing output data file ./work/sic_gec3.save/

     General routines

     PAW routines

   This run was terminated on:  16:10:22   8Aug2021

   JOB DONE.