     Program PWSCF v.7.0 starts on 26Sep2022 at 21:36: 3

     Waiting for input...
     Reading input from standard input

     Current dimensions of program PWSCF are:
     Max number of different atomic species (ntypx) = 10
     Max number of k-points (npk) =  40000
     Max angular momentum in pseudopotentials (lmaxx) =  4

     IMPORTANT: XC functional enforced from input :
     Exchange-correlation= PBE
                           (   1   4   3   4   0   0   0)
     Any further DFT definition will be discarded
     Please, verify this is what you really want

     DFT-D3 Dispersion Correction (3-body terms):
       Reference C6 values for interpolation:

         atom   Coordination number   C6
         C          0.000            98.23
         C          0.987            86.49
         C          1.998            58.72
         C          2.999            51.56
         C          3.984            36.41
         Si         0.000           635.71
         Si         0.951           540.53
         Si         1.944           466.25
         Si         2.941           443.01
         Si         3.868           299.55

       Values used:

         atom   Coordination number  R0_AB[au]  C6      C8
         Si         3.473            3.583    349.10  24969.97
         C          2.982            2.750     51.41   1486.76
         Si         3.473            3.583    349.10  24969.97
         C          2.982            2.750     51.41   1486.76
         Si         3.473            3.583    349.10  24969.97
         C          2.982            2.750     51.41   1486.76
         Si         3.473            3.583    349.10  24969.97
         C          2.982            2.750     51.41   1486.76

         Molecular C6 ( Ry / a.u.^6 ) =     10600.62

     Found identity + ( -0.0000  0.5000  0.0000) symmetry
     This is a supercell, fractional translations are disabled

     Using Slab Decomposition

     bravais-lattice index     =            4
     lattice parameter (alat)  =      12.3286  a.u.
     unit-cell volume          =    4974.9089 (a.u.)^3
     number of atoms/cell      =            8
     number of atomic types    =            2
     number of electrons       =        32.00
     number of Kohn-Sham states=           20
     kinetic-energy cutoff     =      30.0000  Ry
     charge density cutoff     =     200.0000  Ry
     scf convergence threshold =      1.0E-06
     mixing beta               =       0.7000
     number of iterations used =            8  plain     mixing
     Exchange-correlation= PBE
                           (   1   4   3   4   0   0   0)

     celldm(1)=  12.328573  celldm(2)=   0.000000  celldm(3)=   3.065604
     celldm(4)=   0.000000  celldm(5)=   0.000000  celldm(6)=   0.000000

     crystal axes: (cart. coord. in units of alat)
               a(1) = (   1.000000   0.000000   0.000000 )
               a(2) = (  -0.500000   0.866025   0.000000 )
               a(3) = (   0.000000   0.000000   3.065604 )

     reciprocal axes: (cart. coord. in units 2 pi/alat)
               b(1) = (  1.000000  0.577350 -0.000000 )
               b(2) = (  0.000000  1.154701  0.000000 )
               b(3) = (  0.000000 -0.000000  0.326200 )

     PseudoPot. # 1 for Si read from file:
     ./pseudo/Si.pbe-nl-rrkjus_psl.1.0.0.UPF
     MD5 check sum: 78279d3766ecb5dbdc0623f3e93c9a23
     Pseudo is Ultrasoft + core correction, Zval =  4.0
     Generated using &quot;atomic&quot; code by A. Dal Corso  v.6.3
     Using radial grid of 1141 points,  4 beta functions with:
                l(1) =   0
                l(2) =   0
                l(3) =   1
                l(4) =   1
     Q(r) pseudized with 0 coefficients

     PseudoPot. # 2 for C  read from file:
     ./pseudo/C.pbe-n-rrkjus_psl.1.0.0.UPF
     MD5 check sum: 1fdd950c42eb37d8afe3dd2f8d12311e
     Pseudo is Ultrasoft + core correction, Zval =  4.0
     Generated using &quot;atomic&quot; code by A. Dal Corso  v.6.3MaX
     Using radial grid of 1073 points,  4 beta functions with:
                l(1) =   0
                l(2) =   0
                l(3) =   1
                l(4) =   1
     Q(r) pseudized with 0 coefficients

     atomic species   valence    mass     pseudopotential
        Si             4.00    28.08550     Si( 1.00)
        C              4.00    12.01070     C ( 1.00)

     12 Sym. Ops. (no inversion) found

                                    s                        frac. trans.

      isym =  1     identity

 cryst.   s( 1) = (     1          0          0      )
                  (     0          1          0      )
                  (     0          0          1      )

 cart.    s( 1) = (  1.0000000  0.0000000  0.0000000 )
                  (  0.0000000  1.0000000  0.0000000 )
                  (  0.0000000  0.0000000  1.0000000 )

      isym =  2     180 deg rotation - cart. axis [0,1,0]

[...]

      isym =  3     120 deg rotation - cryst. axis [0,0,1]

[...]

      isym =  6     180 deg rotation - cryst. axis [2,1,0]

[...]

      isym =  7     inv. 180 deg rotation - cart. axis [0,0,1]

[...]

      isym =  8     inv. 180 deg rotation - cart. axis [1,0,0]

[...]

      isym =  9     inv.  60 deg rotation - cryst. axis [0,0,1]

 cryst.   s( 9) = (    -1         -1          0      )
                  (     1          0          0      )
                  (     0          0         -1      )

 cart.    s( 9) = ( -0.5000000  0.8660254  0.0000000 )
                  ( -0.8660254 -0.5000000  0.0000000 )
                  (  0.0000000  0.0000000 -1.0000000 )

[...]

 cryst.   s(10) = (     0          1          0      )
                  (    -1         -1          0      )
                  (     0          0         -1      )

 cart.    s(10) = ( -0.5000000 -0.8660254  0.0000000 )
                  (  0.8660254 -0.5000000  0.0000000 )
                  (  0.0000000  0.0000000 -1.0000000 )

[...]

      isym = 12     inv. 180 deg rotation - cryst. axis [1,1,0]

 cryst.   s(12) = (     0         -1          0      )
                  (    -1          0          0      )
                  (     0          0          1      )

 cart.    s(12) = (  0.5000000 -0.8660254  0.0000000 )
                  ( -0.8660254 -0.5000000  0.0000000 )
                  (  0.0000000  0.0000000  1.0000000 )

     point group D_3h (-62m)
     there are  6 classes
     the character table:

       E     2C3   3C2   s_h   2S3   3s_v
A'_1   1.00  1.00  1.00  1.00  1.00  1.00
A'_2   1.00  1.00 -1.00  1.00  1.00 -1.00
E'     2.00 -1.00  0.00  2.00 -1.00  0.00
A''1   1.00  1.00  1.00 -1.00 -1.00 -1.00
A''2   1.00  1.00 -1.00 -1.00 -1.00  1.00
E''    2.00 -1.00  0.00 -2.00  1.00  0.00

     the symmetry operations in each class and the name of the first element:

     E        1
          identity
     2C3      3    4
          120 deg rotation - cryst. axis [0,0,1]
     3C2      2    6    5
          180 deg rotation - cart. axis [0,1,0]
     s_h      7
          inv. 180 deg rotation - cart. axis [0,0,1]
     2S3      9   10
          inv.  60 deg rotation - cryst. axis [0,0,1]
     3s_v     8   11   12
          inv. 180 deg rotation - cart. axis [1,0,0]

   Cartesian axes

     site n.     atom                  positions (alat units)
         1           Si  tau(   1) = (   0.0000000   0.0000000   1.5328020  )
         2           C   tau(   2) = (   0.0000000   0.2886751   1.5328020  )
         3           Si  tau(   3) = (  -0.2500000   0.4330127   1.5328020  )
         4           C   tau(   4) = (  -0.2500000   0.7216878   1.5328020  )
         5           Si  tau(   5) = (   0.5000000   0.0000000   1.5328020  )
         6           C   tau(   6) = (   0.5000000   0.2886751   1.5328020  )
         7           Si  tau(   7) = (   0.2500000   0.4330127   1.5328020  )
         8           C   tau(   8) = (   0.2500000   0.7216878   1.5328020  )

   Crystallographic axes

     site n.     atom                  positions (cryst. coord.)
         1           Si  tau(   1) = (  0.0000000  0.0000000  0.5000000  )
         2           C   tau(   2) = (  0.1666667  0.3333333  0.5000000  )
         3           Si  tau(   3) = ( -0.0000000  0.5000000  0.5000000  )
         4           C   tau(   4) = (  0.1666667  0.8333333  0.5000000  )
         5           Si  tau(   5) = (  0.5000000  0.0000000  0.5000000  )
         6           C   tau(   6) = (  0.6666667  0.3333333  0.5000000  )
         7           Si  tau(   7) = (  0.5000000  0.5000000  0.5000000  )
         8           C   tau(   8) = (  0.6666667  0.8333333  0.5000000  )

     number of k points=     7  Marzari-Vanderbilt smearing, width (Ry)=  0.0050
                       cart. coord. in units 2pi/alat
        k(    1) = (   0.0000000   0.0000000   0.0000000), wk =   0.0555556
        k(    2) = (   0.0000000   0.1924501   0.0000000), wk =   0.3333333
        k(    3) = (   0.0000000   0.3849002   0.0000000), wk =   0.3333333
        k(    4) = (   0.0000000  -0.5773503   0.0000000), wk =   0.1666667
        k(    5) = (   0.1666667   0.2886751   0.0000000), wk =   0.3333333
        k(    6) = (   0.1666667   0.4811252   0.0000000), wk =   0.6666667
        k(    7) = (   0.3333333   0.5773503   0.0000000), wk =   0.1111111

                       cryst. coord.
        k(    1) = (   0.0000000   0.0000000   0.0000000), wk =   0.0555556
        k(    2) = (   0.0000000   0.1666667   0.0000000), wk =   0.3333333
        k(    3) = (   0.0000000   0.3333333   0.0000000), wk =   0.3333333
        k(    4) = (   0.0000000  -0.5000000   0.0000000), wk =   0.1666667
        k(    5) = (   0.1666667   0.1666667   0.0000000), wk =   0.3333333
        k(    6) = (   0.1666667   0.3333333   0.0000000), wk =   0.6666667
        k(    7) = (   0.3333333   0.3333333   0.0000000), wk =   0.1111111

     Check: negative core charge=   -0.000010

     Initial potential from superposition of free atoms

     starting charge      31.9976, renormalised to      32.0000

     negative rho (up, down):  3.805E-04 0.000E+00
     Starting wfcs are   32 randomized atomic wfcs

     Self-consistent Calculation

     iteration #  1     ecut=    30.00 Ry     beta= 0.70
     Davidson diagonalization with overlap

     ethr =  1.00E-02,  avg # of iterations =  2.7

     negative rho (up, down):  5.616E-04 0.000E+00

     total energy              =     -89.34715207 Ry
     estimated scf accuracy    <       2.27557623 Ry

[...]

     c_bands:  1 eigenvalues not converged
     ethr =  2.91E-06,  avg # of iterations =  8.6

[...]

     total energy              =     -90.32396194 Ry
     estimated scf accuracy    <       0.00002370 Ry

     iteration #  9     ecut=    30.00 Ry     beta= 0.70
     Davidson diagonalization with overlap

     ethr =  7.40E-08,  avg # of iterations =  3.0

     negative rho (up, down):  6.208E-04 0.000E+00

     End of self-consistent calculation

          k = 0.0000 0.0000 0.0000 ( 13841 PWs)   bands (ev):

   -16.4907 -13.9474 -13.9465 -13.9465 -11.0447 -11.0447 -11.0447  -6.7460
    -6.3297  -6.3297  -6.3291  -4.9205  -4.9205  -4.0379  -4.0371  -4.0371
    -1.1557  -1.1553  -1.1553  -0.8625

     occupation numbers
     1.0000   1.0000   1.0000   1.0000   1.0000   1.0000   1.0000   1.0000
     1.0000   1.0000   1.0000   1.0000   1.0000   1.0000   1.0000   1.0000
     0.0000   0.0000   0.0000   0.0000

[...]

          k = 0.3333 0.5774 0.0000 ( 13815 PWs)   bands (ev):

   -15.3252 -15.3249 -15.3245 -13.4260 -10.7179  -8.6564  -8.4057  -8.4053
    -8.4052  -6.4653  -6.4650  -6.4649  -5.5140  -5.5138  -5.5135  -3.3885
    -1.3114   0.8739   1.1927   1.1933

     occupation numbers
     1.0000   1.0000   1.0000   1.0000   1.0000   1.0000   1.0000   1.0000
     1.0000   1.0000   1.0000   1.0000   1.0000   1.0000   1.0000   1.0000
     0.0000   0.0000   0.0000   0.0000

     the Fermi energy is    -2.8876 ev

!    total energy              =     -90.32396942 Ry
     estimated scf accuracy    <       0.00000026 Ry
     smearing contrib. (-TS)   =       0.00000000 Ry
     internal energy E=F+TS    =     -90.32396942 Ry

     The total energy is F=E-TS. E is the sum of the following terms:
     one-electron contribution =    -492.45582284 Ry
     hartree contribution      =     251.27306647 Ry
     xc contribution           =     -37.49644600 Ry
     ewald contribution        =     188.37936267 Ry
     DFT-D3 Dispersion         =      -0.02412971 Ry

     convergence has been achieved in   9 iterations

     Writing all to output data dir ./work/sic2.save/

     General routines

   This run was terminated on:  21:37:23  26Sep2022

   JOB DONE.