     Program PWSCF v.7.0 starts on 26Sep2022 at 20:54:48

     Waiting for input...
     Reading input from standard input

     Current dimensions of program PWSCF are:
     Max number of different atomic species (ntypx) = 10
     Max number of k-points (npk) =  40000
     Max angular momentum in pseudopotentials (lmaxx) =  4
     file Zn.pbe-dnl-rrkjus_psl.1.0.0.UPF: wavefunction(s)  3D renormalized

     IMPORTANT: XC functional enforced from input :
     Exchange-correlation= PBE
                           (   1   4   3   4   0   0   0)
     Any further DFT definition will be discarded
     Please, verify this is what you really want

     DFT-D3 Dispersion Correction (3-body terms):
       Reference C6 values for interpolation:

         atom   Coordination number   C6
         O          0.000            31.01
         O          0.993            25.63
         O          1.989            20.74
         Zn         0.000           681.04
         Zn         1.942           306.91

       Values used:

         atom   Coordination number  R0_AB[au]  C6      C8
         Zn         3.816            3.053    306.91  23930.67
         O          2.921            2.345     20.74    418.58
         Zn         3.816            3.053    306.91  23930.67
         O          2.921            2.345     20.74    418.58
         Zn         3.816            3.053    306.91  23930.67
         O          2.921            2.345     20.74    418.58
         Zn         3.816            3.053    306.91  23930.67
         O          2.921            2.345     20.74    418.58

         Molecular C6 ( Ry / a.u.^6 ) =      7583.25

     Found identity + ( -0.0000  0.5000  0.0000) symmetry
     This is a supercell, fractional translations are disabled

     Using Slab Decomposition

     bravais-lattice index     =            4
     lattice parameter (alat)  =      12.3286  a.u.
     unit-cell volume          =    4974.9089 (a.u.)^3
     number of atoms/cell      =            8
     number of atomic types    =            2
     number of electrons       =        72.00
     number of Kohn-Sham states=           43
     kinetic-energy cutoff     =      30.0000  Ry
     charge density cutoff     =     200.0000  Ry
     scf convergence threshold =      1.0E-06
     mixing beta               =       0.7000
     number of iterations used =            8  plain     mixing
     Exchange-correlation= PBE
                           (   1   4   3   4   0   0   0)

     celldm(1)=  12.328573  celldm(2)=   0.000000  celldm(3)=   3.065604
     celldm(4)=   0.000000  celldm(5)=   0.000000  celldm(6)=   0.000000

     crystal axes: (cart. coord. in units of alat)
               a(1) = (   1.000000   0.000000   0.000000 )
               a(2) = (  -0.500000   0.866025   0.000000 )
               a(3) = (   0.000000   0.000000   3.065604 )

     reciprocal axes: (cart. coord. in units 2 pi/alat)
               b(1) = (  1.000000  0.577350 -0.000000 )
               b(2) = (  0.000000  1.154701  0.000000 )
               b(3) = (  0.000000 -0.000000  0.326200 )

     PseudoPot. # 1 for Zn read from file:
     ./pseudo/Zn.pbe-dnl-rrkjus_psl.1.0.0.UPF
     MD5 check sum: 7f56cabf9682ed8c977c2f7d0c5985c5
     Pseudo is Ultrasoft + core correction, Zval = 12.0
     Generated using &quot;atomic&quot; code by A. Dal Corso  v.6.2.2
     Using radial grid of 1201 points,  6 beta functions with:
                l(1) =   0
                l(2) =   0
                l(3) =   1
                l(4) =   1
                l(5) =   2
                l(6) =   2
     Q(r) pseudized with 0 coefficients

     PseudoPot. # 2 for O  read from file:
     ./pseudo/O.pbe-n-rrkjus_psl.1.0.0.UPF
     MD5 check sum: 91400c9766925bcf19f520983a725ff0
     Pseudo is Ultrasoft + core correction, Zval =  6.0
     Generated using &quot;atomic&quot; code by A. Dal Corso  v.6.3MaX
     Using radial grid of 1095 points,  4 beta functions with:
                l(1) =   0
                l(2) =   0
                l(3) =   1
                l(4) =   1
     Q(r) pseudized with 0 coefficients

     atomic species   valence    mass     pseudopotential
        Zn            12.00    65.40900     Zn( 1.00)
        O              6.00    15.99940     O ( 1.00)

      6 Sym. Ops. (no inversion) found

                                    s                        frac. trans.

      isym =  1     identity

 cryst.   s( 1) = (     1          0          0      )
                  (     0          1          0      )
                  (     0          0          1      )

 cart.    s( 1) = (  1.0000000  0.0000000  0.0000000 )
                  (  0.0000000  1.0000000  0.0000000 )
                  (  0.0000000  0.0000000  1.0000000 )

      isym =  2     120 deg rotation - cryst. axis [0,0,1]

[...]

      isym =  3     120 deg rotation - cryst. axis [0,0,-1]

[...]

      isym =  4     inv. 180 deg rotation - cart. axis [1,0,0]

[...]

      isym =  5     inv. 180 deg rotation - cryst. axis [0,1,0]

[...]

      isym =  6     inv. 180 deg rotation - cryst. axis [1,1,0]

 cryst.   s( 6) = (     0         -1          0      )
                  (    -1          0          0      )
                  (     0          0          1      )

 cart.    s( 6) = (  0.5000000 -0.8660254  0.0000000 )
                  ( -0.8660254 -0.5000000  0.0000000 )
                  (  0.0000000  0.0000000  1.0000000 )

     point group C_3v (3m)
     there are  3 classes
     the character table:

       E     2C3   3s_v
A_1    1.00  1.00  1.00
A_2    1.00  1.00 -1.00
E      2.00 -1.00  0.00

     the symmetry operations in each class and the name of the first element:

     E        1
          identity
     2C3      2    3
          120 deg rotation - cryst. axis [0,0,1]
     3s_v     4    5    6
          inv. 180 deg rotation - cart. axis [1,0,0]

   Cartesian axes

     site n.     atom                  positions (alat units)
         1           Zn  tau(   1) = (   0.0000000   0.0000000   2.0232986  )
         2           O   tau(   2) = (   0.0000000   0.2886751   2.0232986  )
         3           Zn  tau(   3) = (  -0.2500000   0.4330127   2.0232986  )
         4           O   tau(   4) = (  -0.2500000   0.7216878   2.0232986  )
         5           Zn  tau(   5) = (   0.5000000   0.0000000   2.0232986  )
         6           O   tau(   6) = (   0.5000000   0.2886751   2.0232986  )
         7           Zn  tau(   7) = (   0.2500000   0.4330127   2.0232986  )
         8           O   tau(   8) = (   0.2500000   0.7216878   2.0232986  )

   Crystallographic axes

     site n.     atom                  positions (cryst. coord.)
         1           Zn  tau(   1) = (  0.0000000  0.0000000  0.6600000  )
         2           O   tau(   2) = (  0.1666667  0.3333333  0.6600000  )
         3           Zn  tau(   3) = ( -0.0000000  0.5000000  0.6600000  )
         4           O   tau(   4) = (  0.1666667  0.8333333  0.6600000  )
         5           Zn  tau(   5) = (  0.5000000  0.0000000  0.6600000  )
         6           O   tau(   6) = (  0.6666667  0.3333333  0.6600000  )
         7           Zn  tau(   7) = (  0.5000000  0.5000000  0.6600000  )
         8           O   tau(   8) = (  0.6666667  0.8333333  0.6600000  )

     number of k points=     7  Marzari-Vanderbilt smearing, width (Ry)=  0.0050
                       cart. coord. in units 2pi/alat
        k(    1) = (   0.0000000   0.0000000   0.0000000), wk =   0.0555556
        k(    2) = (   0.0000000   0.1924501   0.0000000), wk =   0.3333333
        k(    3) = (   0.0000000   0.3849002   0.0000000), wk =   0.3333333
        k(    4) = (   0.0000000  -0.5773503   0.0000000), wk =   0.1666667
        k(    5) = (   0.1666667   0.2886751   0.0000000), wk =   0.3333333
        k(    6) = (   0.1666667   0.4811252   0.0000000), wk =   0.6666667
        k(    7) = (   0.3333333   0.5773503   0.0000000), wk =   0.1111111

                       cryst. coord.
        k(    1) = (   0.0000000   0.0000000   0.0000000), wk =   0.0555556
        k(    2) = (   0.0000000   0.1666667   0.0000000), wk =   0.3333333
        k(    3) = (   0.0000000   0.3333333   0.0000000), wk =   0.3333333
        k(    4) = (   0.0000000  -0.5000000   0.0000000), wk =   0.1666667
        k(    5) = (   0.1666667   0.1666667   0.0000000), wk =   0.3333333
        k(    6) = (   0.1666667   0.3333333   0.0000000), wk =   0.6666667
        k(    7) = (   0.3333333   0.3333333   0.0000000), wk =   0.1111111

     Check: negative core charge=   -0.000007

     Initial potential from superposition of free atoms

     starting charge      71.9851, renormalised to      72.0000

     negative rho (up, down):  8.413E-03 0.000E+00
     Starting wfcs are   52 randomized atomic wfcs

     Self-consistent Calculation

     iteration #  1     ecut=    30.00 Ry     beta= 0.70
     Davidson diagonalization with overlap

     ethr =  1.00E-02,  avg # of iterations =  2.6

     negative rho (up, down):  9.306E-03 0.000E+00

     total energy              =    -721.63449918 Ry
     estimated scf accuracy    <       1.60227967 Ry

[...]

     c_bands:  2 eigenvalues not converged
     c_bands:  1 eigenvalues not converged
     c_bands:  1 eigenvalues not converged
     ethr =  2.69E-05,  avg # of iterations = 12.1

[...]

     c_bands:  2 eigenvalues not converged
     ethr =  3.75E-06,  avg # of iterations =  9.1

[...]

     total energy              =    -722.39451318 Ry
     estimated scf accuracy    <       0.00000147 Ry

     iteration # 10     ecut=    30.00 Ry     beta= 0.70
     Davidson diagonalization with overlap

     ethr =  2.05E-09,  avg # of iterations =  4.0

     negative rho (up, down):  1.011E-02 0.000E+00

     End of self-consistent calculation

          k = 0.0000 0.0000 0.0000 ( 13841 PWs)   bands (ev):

   -21.5030 -21.0220 -21.0209 -21.0209 -10.0552 -10.0552  -9.7404  -9.7404
    -9.7401  -9.1384  -9.1382  -9.1382  -9.1248  -9.1248  -9.1247  -8.6523
    -8.6523  -8.6523  -8.6300  -8.6071  -8.6071  -8.4659  -8.4659  -8.4659
    -7.5091  -7.5091  -7.5090  -6.2454  -5.5479  -5.5479  -5.5476  -4.5679
    -4.5670  -4.5670  -3.6645  -3.6645  -1.9935   0.8199   1.2365   1.9402
     2.0359   2.4980   2.4980

     occupation numbers
     1.0000   1.0000   1.0000   1.0000   1.0000   1.0000   1.0000   1.0000
     1.0000   1.0000   1.0000   1.0000   1.0000   1.0000   1.0000   1.0000
     1.0000   1.0000   1.0000   1.0000   1.0000   1.0000   1.0000   1.0000
     1.0000   1.0000   1.0000   1.0000   1.0000   1.0000   1.0000   1.0000
     1.0000   1.0000   1.0000   1.0000   0.0000   0.0000   0.0000   0.0000
     0.0000   0.0000   0.0000

[...]

          k = 0.3333 0.5774 0.0000 ( 13815 PWs)   bands (ev):

   -21.2081 -21.2070 -21.2070 -20.9635 -10.0233 -10.0232 -10.0231  -9.5218
    -9.5187  -9.5185  -9.5185  -9.1086  -8.9719  -8.9719  -8.9718  -8.8154
    -8.7334  -8.6499  -8.6498  -8.6498  -8.5368  -8.5368  -8.5367  -8.0104
    -7.4702  -7.3713  -6.0061  -6.0060  -6.0059  -5.1963  -5.1955  -5.1955
    -5.0570  -5.0568  -5.0565  -4.3631   0.6588   0.6589   0.6589   1.7767
     1.7769   1.7769   3.2234

     occupation numbers
     1.0000   1.0000   1.0000   1.0000   1.0000   1.0000   1.0000   1.0000
     1.0000   1.0000   1.0000   1.0000   1.0000   1.0000   1.0000   1.0000
     1.0000   1.0000   1.0000   1.0000   1.0000   1.0000   1.0000   1.0000
     1.0000   1.0000   1.0000   1.0000   1.0000   1.0000   1.0000   1.0000
     1.0000   1.0000   1.0000   1.0000   0.0000   0.0000   0.0000   0.0000
     0.0000   0.0000   0.0000

     the Fermi energy is    -2.6181 ev

!    total energy              =    -722.39451348 Ry
     estimated scf accuracy    <       0.00000010 Ry
     smearing contrib. (-TS)   =      -0.00000000 Ry
     internal energy E=F+TS    =    -722.39451348 Ry

     The total energy is F=E-TS. E is the sum of the following terms:
     one-electron contribution =   -2958.84887287 Ry
     hartree contribution      =    1532.39436714 Ry
     xc contribution           =    -218.37214471 Ry
     ewald contribution        =     922.47038283 Ry
     DFT-D3 Dispersion         =      -0.03824587 Ry

     convergence has been achieved in  10 iterations

     Writing all to output data dir ./work/zno1.save/

     General routines

   This run was terminated on:  20:59:27  26Sep2022

   JOB DONE.