     Program PWSCF v.7.0 starts on 26Sep2022 at 21:37:23

     Waiting for input...
     Reading input from standard input

     Current dimensions of program PWSCF are:
     Max number of different atomic species (ntypx) = 10
     Max number of k-points (npk) =  40000
     Max angular momentum in pseudopotentials (lmaxx) =  4
     file Zn.pbe-dnl-rrkjus_psl.1.0.0.UPF: wavefunction(s)  3D renormalized

     IMPORTANT: XC functional enforced from input :
     Exchange-correlation= PBE
                           (   1   4   3   4   0   0   0)
     Any further DFT definition will be discarded
     Please, verify this is what you really want

     DFT-D3 Dispersion Correction (3-body terms):
       Reference C6 values for interpolation:

         atom   Coordination number   C6
         C          0.000            98.23
         C          0.987            86.49
         C          1.998            58.72
         C          2.999            51.56
         C          3.984            36.41
         O          0.000            31.01
         O          0.993            25.63
         O          1.989            20.74
         Si         0.000           635.71
         Si         0.951           540.53
         Si         1.944           466.25
         Si         2.941           443.01
         Si         3.868           299.55
         Zn         0.000           681.04
         Zn         1.942           306.91

       Values used:

         atom   Coordination number  R0_AB[au]  C6      C8
         Zn         3.859            3.053    306.91  23930.67
         O          2.926            2.345     20.74    418.58
         Zn         3.859            3.053    306.91  23930.67
         O          2.926            2.345     20.74    418.58
         Zn         3.859            3.053    306.91  23930.67
         O          2.926            2.345     20.74    418.58
         Zn         3.859            3.053    306.91  23930.67
         O          2.926            2.345     20.74    418.58
         Si         3.513            3.583    339.97  24317.03
         C          2.991            2.750     51.37   1485.85
         Si         3.513            3.583    339.97  24317.03
         C          2.991            2.750     51.37   1485.85
         Si         3.513            3.583    339.97  24317.03
         C          2.991            2.750     51.37   1485.85
         Si         3.513            3.583    339.97  24317.03
         C          2.991            2.750     51.37   1485.85

         Molecular C6 ( Ry / a.u.^6 ) =     35684.04

     Found identity + ( -0.0000  0.5000  0.0000) symmetry
     This is a supercell, fractional translations are disabled

     Using Slab Decomposition

     bravais-lattice index     =            4
     lattice parameter (alat)  =      12.3286  a.u.
     unit-cell volume          =    4974.9089 (a.u.)^3
     number of atoms/cell      =           16
     number of atomic types    =            4
     number of electrons       =       104.00
     number of Kohn-Sham states=           62
     kinetic-energy cutoff     =      30.0000  Ry
     charge density cutoff     =     200.0000  Ry
     scf convergence threshold =      1.0E-06
     mixing beta               =       0.7000
     number of iterations used =            8  plain     mixing
     Exchange-correlation= PBE
                           (   1   4   3   4   0   0   0)

     celldm(1)=  12.328573  celldm(2)=   0.000000  celldm(3)=   3.065604
     celldm(4)=   0.000000  celldm(5)=   0.000000  celldm(6)=   0.000000

     crystal axes: (cart. coord. in units of alat)
               a(1) = (   1.000000   0.000000   0.000000 )
               a(2) = (  -0.500000   0.866025   0.000000 )
               a(3) = (   0.000000   0.000000   3.065604 )

     reciprocal axes: (cart. coord. in units 2 pi/alat)
               b(1) = (  1.000000  0.577350 -0.000000 )
               b(2) = (  0.000000  1.154701  0.000000 )
               b(3) = (  0.000000 -0.000000  0.326200 )

     PseudoPot. # 1 for Zn read from file:
     ./pseudo/Zn.pbe-dnl-rrkjus_psl.1.0.0.UPF
     MD5 check sum: 7f56cabf9682ed8c977c2f7d0c5985c5
     Pseudo is Ultrasoft + core correction, Zval = 12.0
     Generated using &quot;atomic&quot; code by A. Dal Corso  v.6.2.2
     Using radial grid of 1201 points,  6 beta functions with:
                l(1) =   0
                l(2) =   0
                l(3) =   1
                l(4) =   1
                l(5) =   2
                l(6) =   2
     Q(r) pseudized with 0 coefficients

     PseudoPot. # 2 for O  read from file:
     ./pseudo/O.pbe-n-rrkjus_psl.1.0.0.UPF
     MD5 check sum: 91400c9766925bcf19f520983a725ff0
     Pseudo is Ultrasoft + core correction, Zval =  6.0
     Generated using &quot;atomic&quot; code by A. Dal Corso  v.6.3MaX
     Using radial grid of 1095 points,  4 beta functions with:
                l(1) =   0
                l(2) =   0
                l(3) =   1
                l(4) =   1
     Q(r) pseudized with 0 coefficients

     PseudoPot. # 3 for Si read from file:
     ./pseudo/Si.pbe-nl-rrkjus_psl.1.0.0.UPF
     MD5 check sum: 78279d3766ecb5dbdc0623f3e93c9a23
     Pseudo is Ultrasoft + core correction, Zval =  4.0
     Generated using &quot;atomic&quot; code by A. Dal Corso  v.6.3
     Using radial grid of 1141 points,  4 beta functions with:
                l(1) =   0
                l(2) =   0
                l(3) =   1
                l(4) =   1
     Q(r) pseudized with 0 coefficients

     PseudoPot. # 4 for C  read from file:
     ./pseudo/C.pbe-n-rrkjus_psl.1.0.0.UPF
     MD5 check sum: 1fdd950c42eb37d8afe3dd2f8d12311e
     Pseudo is Ultrasoft + core correction, Zval =  4.0
     Generated using &quot;atomic&quot; code by A. Dal Corso  v.6.3MaX
     Using radial grid of 1073 points,  4 beta functions with:
                l(1) =   0
                l(2) =   0
                l(3) =   1
                l(4) =   1
     Q(r) pseudized with 0 coefficients

     atomic species   valence    mass     pseudopotential
        Zn            12.00    65.40900     Zn( 1.00)
        O              6.00    15.99940     O ( 1.00)
        Si             4.00    28.08550     Si( 1.00)
        C              4.00    12.01070     C ( 1.00)

      6 Sym. Ops. (no inversion) found

                                    s                        frac. trans.

      isym =  1     identity

 cryst.   s( 1) = (     1          0          0      )
                  (     0          1          0      )
                  (     0          0          1      )

 cart.    s( 1) = (  1.0000000  0.0000000  0.0000000 )
                  (  0.0000000  1.0000000  0.0000000 )
                  (  0.0000000  0.0000000  1.0000000 )

      isym =  2     120 deg rotation - cryst. axis [0,0,1]

[...]

      isym =  3     120 deg rotation - cryst. axis [0,0,-1]

[...]

      isym =  4     inv. 180 deg rotation - cart. axis [1,0,0]

[...]

      isym =  5     inv. 180 deg rotation - cryst. axis [0,1,0]

[...]

      isym =  6     inv. 180 deg rotation - cryst. axis [1,1,0]

 cryst.   s( 6) = (     0         -1          0      )
                  (    -1          0          0      )
                  (     0          0          1      )

 cart.    s( 6) = (  0.5000000 -0.8660254  0.0000000 )
                  ( -0.8660254 -0.5000000  0.0000000 )
                  (  0.0000000  0.0000000  1.0000000 )

     point group C_3v (3m)
     there are  3 classes
     the character table:

       E     2C3   3s_v
A_1    1.00  1.00  1.00
A_2    1.00  1.00 -1.00
E      2.00 -1.00  0.00

     the symmetry operations in each class and the name of the first element:

     E        1
          identity
     2C3      2    3
          120 deg rotation - cryst. axis [0,0,1]
     3s_v     4    5    6
          inv. 180 deg rotation - cart. axis [1,0,0]

   Cartesian axes

     site n.     atom                  positions (alat units)
         1           Zn  tau(   1) = (   0.2500000   0.1443376   2.0692826  )
         2           O   tau(   2) = (   0.2500000   0.4330127   2.0692826  )
         3           Zn  tau(   3) = (   0.0000000   0.5773503   2.0692826  )
         4           O   tau(   4) = (   0.0000000   0.8660254   2.0692826  )
         5           Zn  tau(   5) = (   0.7500000   0.1443376   2.0692826  )
         6           O   tau(   6) = (   0.7500000   0.4330127   2.0692826  )
         7           Zn  tau(   7) = (   0.5000000   0.5773503   2.0692826  )
         8           O   tau(   8) = (   0.5000000   0.8660254   2.0692826  )
         9           Si  tau(   9) = (   0.0000000   0.0000000   1.5328020  )
        10           C   tau(  10) = (   0.0000000   0.2886751   1.5328020  )
        11           Si  tau(  11) = (  -0.2500000   0.4330127   1.5328020  )
        12           C   tau(  12) = (  -0.2500000   0.7216878   1.5328020  )
        13           Si  tau(  13) = (   0.5000000   0.0000000   1.5328020  )
        14           C   tau(  14) = (   0.5000000   0.2886751   1.5328020  )
        15           Si  tau(  15) = (   0.2500000   0.4330127   1.5328020  )
        16           C   tau(  16) = (   0.2500000   0.7216878   1.5328020  )

   Crystallographic axes

     site n.     atom                  positions (cryst. coord.)
         1           Zn  tau(   1) = (  0.3333333  0.1666667  0.6750000  )
         2           O   tau(   2) = (  0.5000000  0.5000000  0.6750000  )
         3           Zn  tau(   3) = (  0.3333333  0.6666667  0.6750000  )
         4           O   tau(   4) = (  0.5000000  1.0000000  0.6750000  )
         5           Zn  tau(   5) = (  0.8333333  0.1666667  0.6750000  )
         6           O   tau(   6) = (  1.0000000  0.5000000  0.6750000  )
         7           Zn  tau(   7) = (  0.8333333  0.6666667  0.6750000  )
         8           O   tau(   8) = (  1.0000000  1.0000000  0.6750000  )
         9           Si  tau(   9) = (  0.0000000  0.0000000  0.5000000  )
        10           C   tau(  10) = (  0.1666667  0.3333333  0.5000000  )
        11           Si  tau(  11) = ( -0.0000000  0.5000000  0.5000000  )
        12           C   tau(  12) = (  0.1666667  0.8333333  0.5000000  )
        13           Si  tau(  13) = (  0.5000000  0.0000000  0.5000000  )
        14           C   tau(  14) = (  0.6666667  0.3333333  0.5000000  )
        15           Si  tau(  15) = (  0.5000000  0.5000000  0.5000000  )
        16           C   tau(  16) = (  0.6666667  0.8333333  0.5000000  )

     number of k points=     7  Marzari-Vanderbilt smearing, width (Ry)=  0.0050
                       cart. coord. in units 2pi/alat
        k(    1) = (   0.0000000   0.0000000   0.0000000), wk =   0.0555556
        k(    2) = (   0.0000000   0.1924501   0.0000000), wk =   0.3333333
        k(    3) = (   0.0000000   0.3849002   0.0000000), wk =   0.3333333
        k(    4) = (   0.0000000  -0.5773503   0.0000000), wk =   0.1666667
        k(    5) = (   0.1666667   0.2886751   0.0000000), wk =   0.3333333
        k(    6) = (   0.1666667   0.4811252   0.0000000), wk =   0.6666667
        k(    7) = (   0.3333333   0.5773503   0.0000000), wk =   0.1111111

                       cryst. coord.
        k(    1) = (   0.0000000   0.0000000   0.0000000), wk =   0.0555556
        k(    2) = (   0.0000000   0.1666667   0.0000000), wk =   0.3333333
        k(    3) = (   0.0000000   0.3333333   0.0000000), wk =   0.3333333
        k(    4) = (   0.0000000  -0.5000000   0.0000000), wk =   0.1666667
        k(    5) = (   0.1666667   0.1666667   0.0000000), wk =   0.3333333
        k(    6) = (   0.1666667   0.3333333   0.0000000), wk =   0.6666667
        k(    7) = (   0.3333333   0.3333333   0.0000000), wk =   0.1111111

     Check: negative core charge=   -0.000012

     Initial potential from superposition of free atoms

     starting charge     103.9827, renormalised to     104.0000

     negative rho (up, down):  5.561E-03 0.000E+00
     Starting wfcs are   84 randomized atomic wfcs

     Self-consistent Calculation

     iteration #  1     ecut=    30.00 Ry     beta= 0.70
     Davidson diagonalization with overlap

     ethr =  1.00E-02,  avg # of iterations =  2.9

     negative rho (up, down):  6.155E-03 0.000E+00

     total energy              =    -811.16203737 Ry
     estimated scf accuracy    <       3.66777725 Ry

[...]

     WARNING: integrated charge=   104.00001312, expected=   104.00000000

[...]

     c_bands:  1 eigenvalues not converged
     ethr =  1.28E-05,  avg # of iterations =  8.9

[...]

     total energy              =    -812.78413478 Ry
     estimated scf accuracy    <       0.00000201 Ry

     iteration # 13     ecut=    30.00 Ry     beta= 0.70
     Davidson diagonalization with overlap

     ethr =  1.93E-09,  avg # of iterations =  4.1

     negative rho (up, down):  6.686E-03 0.000E+00

     End of self-consistent calculation

          k = 0.0000 0.0000 0.0000 ( 13841 PWs)   bands (ev):

   -19.9121 -19.4307 -19.4307 -19.4307 -14.8028 -12.2538 -12.2536 -12.2536
    -9.3634  -9.3634  -9.3633  -8.4481  -8.4481  -8.1341  -8.1341  -8.1341
    -7.5352  -7.5352  -7.5352  -7.5170  -7.5170  -7.5170  -7.0411  -7.0411
    -7.0411  -7.0405  -6.9954  -6.9954  -6.8563  -6.8563  -6.8563  -5.9113
    -5.9113  -5.9113  -5.4385  -4.6379  -4.6379  -4.6378  -4.2819  -3.9445
    -3.9445  -3.9445  -3.2235  -3.2235  -3.0700  -3.0700  -3.0700  -2.3172
    -2.3170  -2.3170  -2.0638  -2.0638  -0.3369   0.5051   0.5051   0.5051
     1.2620   1.2620   1.2620   1.2632   2.4642   2.8181

     occupation numbers
     1.0000   1.0000   1.0000   1.0000   1.0000   1.0000   1.0000   1.0000
     1.0000   1.0000   1.0000   1.0000   1.0000   1.0000   1.0000   1.0000
     1.0000   1.0000   1.0000   1.0000   1.0000   1.0000   1.0000   1.0000
     1.0000   1.0000   1.0000   1.0000   1.0000   1.0000   1.0000   1.0000
     1.0000   1.0000   1.0000   1.0000   1.0000   1.0000   1.0000   1.0000
     1.0000   1.0000   1.0000   1.0000   1.0000   1.0000   1.0000   1.0000
     1.0000   1.0000   1.0000   1.0000   0.0000   0.0000   0.0000   0.0000
     0.0000   0.0000   0.0000   0.0000   0.0000   0.0000

[...]

          k = 0.3333 0.5774 0.0000 ( 13815 PWs)   bands (ev):

   -19.6167 -19.6167 -19.6167 -19.3729 -13.6359 -13.6357 -13.6357 -11.7314
    -9.0312  -8.4166  -8.4166  -8.4166  -7.9140  -7.9115  -7.9115  -7.9115
    -7.5020  -7.3741  -7.3741  -7.3741  -7.2060  -7.1232  -7.0400  -7.0400
    -7.0399  -6.9880  -6.9395  -6.9394  -6.9394  -6.7075  -6.7075  -6.7075
    -6.3995  -5.8728  -5.7635  -4.7816  -4.7815  -4.7814  -4.4706  -4.4706
    -4.4706  -4.0790  -4.0790  -4.0789  -3.4563  -3.4563  -3.4563  -3.2793
    -3.2792  -3.2792  -2.8307  -1.7079   0.4356   2.1695   2.1695   2.1696
     2.7472   2.7472   2.7473   3.1198   3.1198   3.1199

     occupation numbers
     1.0000   1.0000   1.0000   1.0000   1.0000   1.0000   1.0000   1.0000
     1.0000   1.0000   1.0000   1.0000   1.0000   1.0000   1.0000   1.0000
     1.0000   1.0000   1.0000   1.0000   1.0000   1.0000   1.0000   1.0000
     1.0000   1.0000   1.0000   1.0000   1.0000   1.0000   1.0000   1.0000
     1.0000   1.0000   1.0000   1.0000   1.0000   1.0000   1.0000   1.0000
     1.0000   1.0000   1.0000   1.0000   1.0000   1.0000   1.0000   1.0000
     1.0000   1.0000   1.0000   1.0000   0.0000   0.0000   0.0000   0.0000
     0.0000   0.0000   0.0000   0.0000   0.0000   0.0000

     the Fermi energy is    -1.2565 ev

!    total energy              =    -812.78413535 Ry
     estimated scf accuracy    <       0.00000010 Ry
     smearing contrib. (-TS)   =       0.00000000 Ry
     internal energy E=F+TS    =    -812.78413535 Ry

     The total energy is F=E-TS. E is the sum of the following terms:
     one-electron contribution =   -3834.14337223 Ry
     hartree contribution      =    1981.34434928 Ry
     xc contribution           =    -255.91877182 Ry
     ewald contribution        =    1296.04765219 Ry
     DFT-D3 Dispersion         =      -0.11399277 Ry

     convergence has been achieved in  13 iterations

     Writing all to output data dir ./work/zno_sic_2.save/

     General routines

   This run was terminated on:  21:47:18  26Sep2022

   JOB DONE.