     Program PWSCF v.6.3 starts on 17Apr2020 at 23:39:23

     Reading input from /home/nano3/Desktop/RAYID/Ge+SiC/Ge+SiC_I/Ge+SiC_I__3.6.scf.in

     Current dimensions of program PWSCF are:
     Max number of different atomic species (ntypx) = 10
     Max number of k-points (npk) =  40000
     Max angular momentum in pseudopotentials (lmaxx) =  3

     IMPORTANT: XC functional enforced from input :
     Exchange-correlation      = PBE ( 1  4  3  4 0 0)
     Any further DFT definition will be discarded
     Please, verify this is what you really want

               file Ge.pbe-mt_fhi.UPF: wavefunction(s)  4d 4f renormalized
               file C.pbe-mt_fhi.UPF: wavefunction(s)  4f renormalized
               file Si.pbe-mt_fhi.UPF: wavefunction(s)  4f renormalized

     Parameters for Dispersion (Grimme-D2) Correction:
       atom      VdW radius       C_6

        Ge         3.264        593.221
        C          2.744         60.710
        Si         3.243        320.200

     Subspace diagonalization in iterative solution of the eigenvalue problem:
     a serial algorithm will be used

     bravais-lattice index     =            4
     lattice parameter (alat)  =      23.1302  a.u.
     unit-cell volume          =   17511.3678 (a.u.)^3
     number of atoms/cell      =           50
     number of atomic types    =            3
     number of electrons       =       200.00
     number of Kohn-Sham states=          120
     kinetic-energy cutoff     =      30.0000  Ry
     charge density cutoff     =     120.0000  Ry
     convergence threshold     =      1.0E-04
     mixing beta               =       0.7000
     number of iterations used =            8  plain     mixing
     Exchange-correlation      = PBE ( 1  4  3  4 0 0)

     celldm(1)=  23.130248  celldm(2)=   0.000000  celldm(3)=   1.633987
     celldm(4)=   0.000000  celldm(5)=   0.000000  celldm(6)=   0.000000

     crystal axes: (cart. coord. in units of alat)
               a(1) = (   1.000000   0.000000   0.000000 )
               a(2) = (  -0.500000   0.866025   0.000000 )
               a(3) = (   0.000000   0.000000   1.633987 )

     reciprocal axes: (cart. coord. in units 2 pi/alat)
               b(1) = (  1.000000  0.577350 -0.000000 )
               b(2) = (  0.000000  1.154701  0.000000 )
               b(3) = (  0.000000 -0.000000  0.612000 )

     PseudoPot. # 1 for Ge read from file:
     /home/nano3/Desktop/RAYID/qe-6.3/bin/pseudo/Ge.pbe-mt_fhi.UPF
     MD5 check sum: b08ff19c3d362044f6e29226b459d86a
     Pseudo is Norm-conserving, Zval =  4.0
     Generated using FHI98PP, converted with fhi2upf.x v.5.0.2
     Using radial grid of  529 points,  3 beta functions with:
                l(1) =   1
                l(2) =   2
                l(3) =   3

     PseudoPot. # 2 for C  read from file:
     /home/nano3/Desktop/RAYID/qe-6.3/bin/pseudo/C.pbe-mt_fhi.UPF
     MD5 check sum: 058ca341f9d6d5327d9962fd88a91b65
     Pseudo is Norm-conserving, Zval =  4.0
     Generated using FHI98PP, converted with fhi2upf.x v.5.0.2
     Using radial grid of  461 points,  3 beta functions with:
                l(1) =   0
                l(2) =   1
                l(3) =   3

     PseudoPot. # 3 for Si read from file:
     /home/nano3/Desktop/RAYID/qe-6.3/bin/pseudo/Si.pbe-mt_fhi.UPF
     MD5 check sum: 259057c2adf9952f9ced37ae3d9e311d
     Pseudo is Norm-conserving, Zval =  4.0
     Generated using FHI98PP, converted with fhi2upf.x v.5.0.2
     Using radial grid of  495 points,  3 beta functions with:
                l(1) =   0
                l(2) =   1
                l(3) =   3

     atomic species   valence    mass     pseudopotential
        Ge             4.00    72.59000     Ge( 1.00)
        C              4.00    12.01070     C ( 1.00)
        Si             4.00    28.08550     Si( 1.00)

      6 Sym. Ops. (no inversion) found

                                    s                        frac. trans.

      isym =  1     identity

 cryst.   s( 1) = (     1          0          0      )
                  (     0          1          0      )
                  (     0          0          1      )

 cart.    s( 1) = (  1.0000000  0.0000000  0.0000000 )
                  (  0.0000000  1.0000000  0.0000000 )
                  (  0.0000000  0.0000000  1.0000000 )

      isym =  2     120 deg rotation - cryst. axis [0,0,1]

[...]

      isym =  3     120 deg rotation - cryst. axis [0,0,-1]

[...]

      isym =  4     inv. 180 deg rotation - cart. axis [1,0,0]

[...]

      isym =  5     inv. 180 deg rotation - cryst. axis [0,1,0]

[...]

      isym =  6     inv. 180 deg rotation - cryst. axis [1,1,0]

 cryst.   s( 6) = (     0         -1          0      )
                  (    -1          0          0      )
                  (     0          0          1      )

 cart.    s( 6) = (  0.5000000 -0.8660254  0.0000000 )
                  ( -0.8660254 -0.5000000  0.0000000 )
                  (  0.0000000  0.0000000  1.0000000 )

     point group C_3v (3m)
     there are  3 classes
     the character table:

       E     2C3   3s_v
A_1    1.00  1.00  1.00
A_2    1.00  1.00 -1.00
E      2.00 -1.00  0.00

     the symmetry operations in each class and the name of the first element:

     E        1
          identity
     2C3      2    3
          120 deg rotation - cryst. axis [0,0,1]
     3s_v     4    5    6
          inv. 180 deg rotation - cart. axis [1,0,0]

   Cartesian axes

     site n.     atom                  positions (alat units)
         1           Ge  tau(   1) = (   0.0000000   0.0000000   0.2941176  )
         2           Ge  tau(   2) = (   0.0000000   0.1924510   0.3490196  )
         3           Ge  tau(   3) = (  -0.1666667   0.2886751   0.2941176  )
         4           Ge  tau(   4) = (  -0.1666667   0.4811261   0.3490196  )
         5           Ge  tau(   5) = (  -0.3333333   0.5773503   0.2941176  )
         6           Ge  tau(   6) = (  -0.3333333   0.7698012   0.3490196  )
         7           Ge  tau(   7) = (   0.3333333   0.0000000   0.2941176  )
         8           Ge  tau(   8) = (   0.3333333   0.1924510   0.3490196  )
         9           Ge  tau(   9) = (   0.1666667   0.2886751   0.2941176  )
        10           Ge  tau(  10) = (   0.1666667   0.4811261   0.3490196  )
        11           Ge  tau(  11) = (   0.0000000   0.5773503   0.2941176  )
        12           Ge  tau(  12) = (   0.0000000   0.7698012   0.3490196  )
        13           Ge  tau(  13) = (   0.6666667   0.0000000   0.2941176  )
        14           Ge  tau(  14) = (   0.6666667   0.1924510   0.3490196  )
        15           Ge  tau(  15) = (   0.5000000   0.2886751   0.2941176  )
        16           Ge  tau(  16) = (   0.5000000   0.4811261   0.3490196  )
        17           Ge  tau(  17) = (   0.3333333   0.5773503   0.2941176  )
        18           Ge  tau(  18) = (   0.3333333   0.7698012   0.3490196  )
        19           Si  tau(  19) = (   0.0000000   0.0000000   0.0000000  )
        20           C   tau(  20) = (   0.0000000   0.1443382   0.0000000  )
        21           Si  tau(  21) = (  -0.1250000   0.2165064   0.0000000  )
        22           C   tau(  22) = (  -0.1250000   0.3608446   0.0000000  )
        23           Si  tau(  23) = (  -0.2500000   0.4330127   0.0000000  )
        24           C   tau(  24) = (  -0.2500000   0.5773509   0.0000000  )
        25           Si  tau(  25) = (  -0.3750000   0.6495191   0.0000000  )
        26           C   tau(  26) = (  -0.3750000   0.7938573   0.0000000  )
        27           Si  tau(  27) = (   0.2500000   0.0000000   0.0000000  )
        28           C   tau(  28) = (   0.2500000   0.1443382   0.0000000  )
        29           Si  tau(  29) = (   0.1250000   0.2165064   0.0000000  )
        30           C   tau(  30) = (   0.1250000   0.3608446   0.0000000  )
        31           Si  tau(  31) = (   0.0000000   0.4330127   0.0000000  )
        32           C   tau(  32) = (   0.0000000   0.5773509   0.0000000  )
        33           Si  tau(  33) = (  -0.1250000   0.6495191   0.0000000  )
        34           C   tau(  34) = (  -0.1250000   0.7938573   0.0000000  )
        35           Si  tau(  35) = (   0.5000000   0.0000000   0.0000000  )
        36           C   tau(  36) = (   0.5000000   0.1443382   0.0000000  )
        37           Si  tau(  37) = (   0.3750000   0.2165064   0.0000000  )
        38           C   tau(  38) = (   0.3750000   0.3608446   0.0000000  )
        39           Si  tau(  39) = (   0.2500000   0.4330127   0.0000000  )
        40           C   tau(  40) = (   0.2500000   0.5773509   0.0000000  )
        41           Si  tau(  41) = (   0.1250000   0.6495191   0.0000000  )
        42           C   tau(  42) = (   0.1250000   0.7938573   0.0000000  )
        43           Si  tau(  43) = (   0.7500000   0.0000000   0.0000000  )
        44           C   tau(  44) = (   0.7500000   0.1443382   0.0000000  )
        45           Si  tau(  45) = (   0.6250000   0.2165064   0.0000000  )
        46           C   tau(  46) = (   0.6250000   0.3608446   0.0000000  )
        47           Si  tau(  47) = (   0.5000000   0.4330127   0.0000000  )
        48           C   tau(  48) = (   0.5000000   0.5773509   0.0000000  )
        49           Si  tau(  49) = (   0.3750000   0.6495191   0.0000000  )
        50           C   tau(  50) = (   0.3750000   0.7938573   0.0000000  )

   Crystallographic axes

     site n.     atom                  positions (cryst. coord.)
         1           Ge  tau(   1) = (  0.0000000  0.0000000  0.1800000  )
         2           Ge  tau(   2) = (  0.1111116  0.2222233  0.2136000  )
         3           Ge  tau(   3) = ( -0.0000000  0.3333333  0.1800000  )
         4           Ge  tau(   4) = (  0.1111116  0.5555566  0.2136000  )
         5           Ge  tau(   5) = ( -0.0000000  0.6666667  0.1800000  )
         6           Ge  tau(   6) = (  0.1111116  0.8888899  0.2136000  )
         7           Ge  tau(   7) = (  0.3333333  0.0000000  0.1800000  )
         8           Ge  tau(   8) = (  0.4444450  0.2222233  0.2136000  )
         9           Ge  tau(   9) = (  0.3333333  0.3333333  0.1800000  )
        10           Ge  tau(  10) = (  0.4444450  0.5555566  0.2136000  )
        11           Ge  tau(  11) = (  0.3333333  0.6666667  0.1800000  )
        12           Ge  tau(  12) = (  0.4444450  0.8888899  0.2136000  )
        13           Ge  tau(  13) = (  0.6666667  0.0000000  0.1800000  )
        14           Ge  tau(  14) = (  0.7777783  0.2222233  0.2136000  )
        15           Ge  tau(  15) = (  0.6666667  0.3333333  0.1800000  )
        16           Ge  tau(  16) = (  0.7777783  0.5555566  0.2136000  )
        17           Ge  tau(  17) = (  0.6666667  0.6666667  0.1800000  )
        18           Ge  tau(  18) = (  0.7777783  0.8888899  0.2136000  )
        19           Si  tau(  19) = (  0.0000000  0.0000000  0.0000000  )
        20           C   tau(  20) = (  0.0833337  0.1666674  0.0000000  )
        21           Si  tau(  21) = (  0.0000000  0.2500000  0.0000000  )
        22           C   tau(  22) = (  0.0833337  0.4166674  0.0000000  )
        23           Si  tau(  23) = (  0.0000000  0.5000000  0.0000000  )
        24           C   tau(  24) = (  0.0833337  0.6666674  0.0000000  )
        25           Si  tau(  25) = (  0.0000000  0.7500000  0.0000000  )
        26           C   tau(  26) = (  0.0833337  0.9166674  0.0000000  )
        27           Si  tau(  27) = (  0.2500000  0.0000000  0.0000000  )
        28           C   tau(  28) = (  0.3333337  0.1666674  0.0000000  )
        29           Si  tau(  29) = (  0.2500000  0.2500000  0.0000000  )
        30           C   tau(  30) = (  0.3333337  0.4166674  0.0000000  )
        31           Si  tau(  31) = (  0.2500000  0.5000000  0.0000000  )
        32           C   tau(  32) = (  0.3333337  0.6666674  0.0000000  )
        33           Si  tau(  33) = (  0.2500000  0.7500000  0.0000000  )
        34           C   tau(  34) = (  0.3333337  0.9166674  0.0000000  )
        35           Si  tau(  35) = (  0.5000000  0.0000000  0.0000000  )
        36           C   tau(  36) = (  0.5833337  0.1666674  0.0000000  )
        37           Si  tau(  37) = (  0.5000000  0.2500000  0.0000000  )
        38           C   tau(  38) = (  0.5833337  0.4166674  0.0000000  )
        39           Si  tau(  39) = (  0.5000000  0.5000000  0.0000000  )
        40           C   tau(  40) = (  0.5833337  0.6666674  0.0000000  )
        41           Si  tau(  41) = (  0.5000000  0.7500000  0.0000000  )
        42           C   tau(  42) = (  0.5833337  0.9166674  0.0000000  )
        43           Si  tau(  43) = (  0.7500000  0.0000000  0.0000000  )
        44           C   tau(  44) = (  0.8333337  0.1666674  0.0000000  )
        45           Si  tau(  45) = (  0.7500000  0.2500000  0.0000000  )
        46           C   tau(  46) = (  0.8333337  0.4166674  0.0000000  )
        47           Si  tau(  47) = (  0.7500000  0.5000000  0.0000000  )
        48           C   tau(  48) = (  0.8333337  0.6666674  0.0000000  )
        49           Si  tau(  49) = (  0.7500000  0.7500000  0.0000000  )
        50           C   tau(  50) = (  0.8333337  0.9166674  0.0000000  )

     number of k points=     3  Methfessel-Paxton smearing, width (Ry)=  0.0060
                       cart. coord. in units 2pi/alat
        k(    1) = (   0.0000000   0.0000000   0.0000000), wk =   0.2222222
        k(    2) = (   0.0000000   0.3849002   0.0000000), wk =   1.3333333
        k(    3) = (   0.3333333   0.5773503   0.0000000), wk =   0.4444444

                       cryst. coord.
        k(    1) = (   0.0000000   0.0000000   0.0000000), wk =   0.2222222
        k(    2) = (   0.0000000   0.3333333   0.0000000), wk =   1.3333333
        k(    3) = (   0.3333333   0.3333333   0.0000000), wk =   0.4444444

     Initial potential from superposition of free atoms
     Check: negative starting charge=   -0.006380

     starting charge  199.97158, renormalised to  200.00000

     negative rho (up, down):  6.381E-03 0.000E+00
     Starting wfcs are  800 randomized atomic wfcs

     Self-consistent Calculation

     iteration #  1     ecut=    30.00 Ry     beta= 0.70
     Davidson diagonalization with overlap
     ethr =  1.00E-02,  avg # of iterations =  2.0

     negative rho (up, down):  1.319E-03 0.000E+00

     total energy              =    -444.76425476 Ry
     Harris-Foulkes estimate   =    -451.60219155 Ry
     estimated scf accuracy    <      10.24221676 Ry

[...]

     negative rho (up, down):  1.596E-07 0.000E+00

[...]

     iteration #  9     ecut=    30.00 Ry     beta= 0.70
     Davidson diagonalization with overlap
     c_bands:  1 eigenvalues not converged
     ethr =  1.89E-06,  avg # of iterations = 11.0

[...]

     total energy              =    -448.64792357 Ry
     Harris-Foulkes estimate   =    -448.64796091 Ry
     estimated scf accuracy    <       0.00010866 Ry

     iteration # 12     ecut=    30.00 Ry     beta= 0.70
     Davidson diagonalization with overlap
     ethr =  5.43E-08,  avg # of iterations =  2.7

     End of self-consistent calculation

          k = 0.0000 0.0000 0.0000 ( 48515 PWs)   bands (ev):

   -15.7525 -14.7583 -14.7411 -14.7411 -14.7075 -14.7075 -14.6897 -12.9978
   -12.9898 -12.9566 -12.9566 -12.9394 -12.9394 -12.7280 -12.7280 -12.7244
   -12.0583 -10.9371 -10.9312 -10.9312 -10.9209 -10.9209 -10.9186  -9.7881
    -9.7881  -9.7873  -9.1316  -9.1295  -9.0969  -9.0969  -8.5606  -8.5606
    -8.5401  -8.5401  -8.5313  -8.5304  -6.9486  -6.9434  -6.9434  -6.9389
    -6.9388  -6.9345  -6.5574  -6.5574  -6.5240  -6.5229  -6.5210  -6.5210
    -6.3610  -6.3483  -6.3482  -6.3277  -6.3276  -6.3181  -5.8811  -4.7479
    -4.7321  -4.7321  -4.7013  -4.7013  -4.6861  -4.6577  -4.6577  -4.6568
    -4.5829  -4.5829  -4.2023  -3.9879  -3.9822  -3.9821  -3.9689  -3.9688
    -3.9616  -3.0743  -3.0742  -2.9244  -2.9233  -2.7785  -2.7785  -2.7322
    -2.7322  -2.6557  -2.6529  -2.6528  -2.6417  -2.6283  -2.6282  -2.6165
    -2.6143  -2.6142  -2.5250  -2.5250  -2.5234  -2.4180  -2.4180  -2.4177
    -1.4349  -1.4347  -0.8470  -0.8470  -0.7944  -0.7874  -0.6396   0.1092
     0.1092   0.1154   0.3499   0.3612   0.3612   0.7144   0.7144   0.7314
     1.0808   1.0808   1.1098   1.1316   1.3444   1.3838   1.3839   1.6818

     occupation numbers
     1.0000   1.0000   1.0000   1.0000   1.0000   1.0000   1.0000   1.0000
     1.0000   1.0000   1.0000   1.0000   1.0000   1.0000   1.0000   1.0000
     1.0000   1.0000   1.0000   1.0000   1.0000   1.0000   1.0000   1.0000
     1.0000   1.0000   1.0000   1.0000   1.0000   1.0000   1.0000   1.0000
     1.0000   1.0000   1.0000   1.0000   1.0000   1.0000   1.0000   1.0000
     1.0000   1.0000   1.0000   1.0000   1.0000   1.0000   1.0000   1.0000
     1.0000   1.0000   1.0000   1.0000   1.0000   1.0000   1.0000   1.0000
     1.0000   1.0000   1.0000   1.0000   1.0000   1.0000   1.0000   1.0000
     1.0000   1.0000   1.0000   1.0000   1.0000   1.0000   1.0000   1.0000
     1.0000   1.0000   1.0000   1.0000   1.0000   1.0000   1.0000   1.0000
     1.0000   1.0000   1.0000   1.0000   1.0000   1.0000   1.0000   1.0000
     1.0000   1.0000   1.0000   1.0000   1.0000   1.0000   1.0000   1.0000
     1.0000   1.0000   0.7735   0.7735   0.2581   0.1990  -0.0040  -0.0000
    -0.0000  -0.0000  -0.0000  -0.0000  -0.0000  -0.0000  -0.0000  -0.0000
    -0.0000  -0.0000  -0.0000  -0.0000  -0.0000  -0.0000  -0.0000  -0.0000

[...]

          k = 0.3333 0.5774 0.0000 ( 48552 PWs)   bands (ev):

   -15.4353 -15.3965 -15.3770 -14.3970 -14.3970 -14.3960 -13.5326 -13.5161
   -13.5152 -13.4833 -13.4825 -13.4672 -12.5297 -12.4912 -12.4712 -12.1343
   -11.6734 -11.6706 -11.6587 -10.5614 -10.5605 -10.5592  -9.9896  -9.9799
    -9.9777  -9.5212  -9.4994  -9.4869  -9.0916  -8.5388  -8.5328  -8.5272
    -8.5114  -8.5077  -8.4997  -8.3315  -8.3268  -8.3250  -7.5885  -7.4105
    -7.4062  -7.4026  -6.6889  -6.6883  -6.6881  -6.1377  -6.1282  -6.1098
    -5.6284  -5.5960  -5.5944  -4.9839  -4.9755  -4.9706  -4.9268  -4.9194
    -4.9089  -4.8961  -4.8828  -4.8765  -4.8548  -4.8540  -4.8536  -4.4128
    -4.4017  -4.3930  -4.3760  -4.3750  -4.3746  -3.7701  -3.7644  -3.7636
    -3.5910  -3.5859  -3.5842  -3.5489  -3.5415  -3.5172  -3.4768  -3.4599
    -3.4544  -3.3121  -3.2970  -3.2859  -2.8770  -2.8767  -2.8727  -2.3491
    -2.3203  -2.2523  -2.2352  -2.2343  -2.2322  -2.0932  -2.0802  -2.0191
    -1.8112  -1.6580  -1.6563  -1.6547  -0.3150  -0.2467  -0.2091   0.0695
     0.2759   0.4278   0.8618   0.9590   1.0480   1.2454   1.2650   1.2786
     1.3104   1.4204   1.4207   1.4209   1.4224   1.4354   1.4556   1.9539

     occupation numbers
     1.0000   1.0000   1.0000   1.0000   1.0000   1.0000   1.0000   1.0000
     1.0000   1.0000   1.0000   1.0000   1.0000   1.0000   1.0000   1.0000
     1.0000   1.0000   1.0000   1.0000   1.0000   1.0000   1.0000   1.0000
     1.0000   1.0000   1.0000   1.0000   1.0000   1.0000   1.0000   1.0000
     1.0000   1.0000   1.0000   1.0000   1.0000   1.0000   1.0000   1.0000
     1.0000   1.0000   1.0000   1.0000   1.0000   1.0000   1.0000   1.0000
     1.0000   1.0000   1.0000   1.0000   1.0000   1.0000   1.0000   1.0000
     1.0000   1.0000   1.0000   1.0000   1.0000   1.0000   1.0000   1.0000
     1.0000   1.0000   1.0000   1.0000   1.0000   1.0000   1.0000   1.0000
     1.0000   1.0000   1.0000   1.0000   1.0000   1.0000   1.0000   1.0000
     1.0000   1.0000   1.0000   1.0000   1.0000   1.0000   1.0000   1.0000
     1.0000   1.0000   1.0000   1.0000   1.0000   1.0000   1.0000   1.0000
     1.0000   1.0000   1.0000   1.0000  -0.0000  -0.0000  -0.0000  -0.0000
    -0.0000  -0.0000  -0.0000  -0.0000  -0.0000  -0.0000  -0.0000  -0.0000
    -0.0000  -0.0000  -0.0000  -0.0000  -0.0000  -0.0000  -0.0000  -0.0000

     the Fermi energy is    -0.8189 ev

!    total energy              =    -448.64786746 Ry
     Harris-Foulkes estimate   =    -448.64795302 Ry
     estimated scf accuracy    <       0.00009283 Ry

     The total energy is the sum of the following terms:

     one-electron contribution =   -3083.86743285 Ry
     hartree contribution      =    1579.61914843 Ry
     xc contribution           =    -135.79134827 Ry
     ewald contribution        =    1191.88442174 Ry
     Dispersion Correction     =      -0.49216029 Ry
     smearing contrib. (-TS)   =      -0.00049622 Ry

     convergence has been achieved in  12 iterations

     Writing output data file Ge+SiC_I__3.6.save/

     General routines

     Parallel routines

   This run was terminated on:   0: 9:35  18Apr2020

   JOB DONE.