     Program PWSCF v.6.3 starts on 16Apr2020 at 20:48:10

     Reading input from /home/nano3/Desktop/RAYID/Ge+SiC/Ge+SiC_I/Ge+SiC_I__3.0.scf.in

     Current dimensions of program PWSCF are:
     Max number of different atomic species (ntypx) = 10
     Max number of k-points (npk) =  40000
     Max angular momentum in pseudopotentials (lmaxx) =  3

     IMPORTANT: XC functional enforced from input :
     Exchange-correlation      = PBE ( 1  4  3  4 0 0)
     Any further DFT definition will be discarded
     Please, verify this is what you really want

               file Ge.pbe-mt_fhi.UPF: wavefunction(s)  4d 4f renormalized
               file C.pbe-mt_fhi.UPF: wavefunction(s)  4f renormalized
               file Si.pbe-mt_fhi.UPF: wavefunction(s)  4f renormalized

     Parameters for Dispersion (Grimme-D2) Correction:
       atom      VdW radius       C_6

        Ge         3.264        593.221
        C          2.744         60.710
        Si         3.243        320.200

     Subspace diagonalization in iterative solution of the eigenvalue problem:
     a serial algorithm will be used

     bravais-lattice index     =            4
     lattice parameter (alat)  =      23.1302  a.u.
     unit-cell volume          =   17511.3678 (a.u.)^3
     number of atoms/cell      =           50
     number of atomic types    =            3
     number of electrons       =       200.00
     number of Kohn-Sham states=          120
     kinetic-energy cutoff     =      30.0000  Ry
     charge density cutoff     =     120.0000  Ry
     convergence threshold     =      1.0E-04
     mixing beta               =       0.7000
     number of iterations used =            8  plain     mixing
     Exchange-correlation      = PBE ( 1  4  3  4 0 0)

     celldm(1)=  23.130248  celldm(2)=   0.000000  celldm(3)=   1.633987
     celldm(4)=   0.000000  celldm(5)=   0.000000  celldm(6)=   0.000000

     crystal axes: (cart. coord. in units of alat)
               a(1) = (   1.000000   0.000000   0.000000 )
               a(2) = (  -0.500000   0.866025   0.000000 )
               a(3) = (   0.000000   0.000000   1.633987 )

     reciprocal axes: (cart. coord. in units 2 pi/alat)
               b(1) = (  1.000000  0.577350 -0.000000 )
               b(2) = (  0.000000  1.154701  0.000000 )
               b(3) = (  0.000000 -0.000000  0.612000 )

     PseudoPot. # 1 for Ge read from file:
     /home/nano3/Desktop/RAYID/qe-6.3/bin/pseudo/Ge.pbe-mt_fhi.UPF
     MD5 check sum: b08ff19c3d362044f6e29226b459d86a
     Pseudo is Norm-conserving, Zval =  4.0
     Generated using FHI98PP, converted with fhi2upf.x v.5.0.2
     Using radial grid of  529 points,  3 beta functions with:
                l(1) =   1
                l(2) =   2
                l(3) =   3

     PseudoPot. # 2 for C  read from file:
     /home/nano3/Desktop/RAYID/qe-6.3/bin/pseudo/C.pbe-mt_fhi.UPF
     MD5 check sum: 058ca341f9d6d5327d9962fd88a91b65
     Pseudo is Norm-conserving, Zval =  4.0
     Generated using FHI98PP, converted with fhi2upf.x v.5.0.2
     Using radial grid of  461 points,  3 beta functions with:
                l(1) =   0
                l(2) =   1
                l(3) =   3

     PseudoPot. # 3 for Si read from file:
     /home/nano3/Desktop/RAYID/qe-6.3/bin/pseudo/Si.pbe-mt_fhi.UPF
     MD5 check sum: 259057c2adf9952f9ced37ae3d9e311d
     Pseudo is Norm-conserving, Zval =  4.0
     Generated using FHI98PP, converted with fhi2upf.x v.5.0.2
     Using radial grid of  495 points,  3 beta functions with:
                l(1) =   0
                l(2) =   1
                l(3) =   3

     atomic species   valence    mass     pseudopotential
        Ge             4.00    72.59000     Ge( 1.00)
        C              4.00    12.01070     C ( 1.00)
        Si             4.00    28.08550     Si( 1.00)

      6 Sym. Ops. (no inversion) found

                                    s                        frac. trans.

      isym =  1     identity

 cryst.   s( 1) = (     1          0          0      )
                  (     0          1          0      )
                  (     0          0          1      )

 cart.    s( 1) = (  1.0000000  0.0000000  0.0000000 )
                  (  0.0000000  1.0000000  0.0000000 )
                  (  0.0000000  0.0000000  1.0000000 )

      isym =  2     120 deg rotation - cryst. axis [0,0,1]

[...]

      isym =  3     120 deg rotation - cryst. axis [0,0,-1]

[...]

      isym =  4     inv. 180 deg rotation - cart. axis [1,0,0]

[...]

      isym =  5     inv. 180 deg rotation - cryst. axis [0,1,0]

[...]

      isym =  6     inv. 180 deg rotation - cryst. axis [1,1,0]

 cryst.   s( 6) = (     0         -1          0      )
                  (    -1          0          0      )
                  (     0          0          1      )

 cart.    s( 6) = (  0.5000000 -0.8660254  0.0000000 )
                  ( -0.8660254 -0.5000000  0.0000000 )
                  (  0.0000000  0.0000000  1.0000000 )

     point group C_3v (3m)
     there are  3 classes
     the character table:

       E     2C3   3s_v
A_1    1.00  1.00  1.00
A_2    1.00  1.00 -1.00
E      2.00 -1.00  0.00

     the symmetry operations in each class and the name of the first element:

     E        1
          identity
     2C3      2    3
          120 deg rotation - cryst. axis [0,0,1]
     3s_v     4    5    6
          inv. 180 deg rotation - cart. axis [1,0,0]

   Cartesian axes

     site n.     atom                  positions (alat units)
         1           Ge  tau(   1) = (   0.0000000   0.0000000   0.2450980  )
         2           Ge  tau(   2) = (   0.0000000   0.1924510   0.3000000  )
         3           Ge  tau(   3) = (  -0.1666667   0.2886751   0.2450980  )
         4           Ge  tau(   4) = (  -0.1666667   0.4811261   0.3000000  )
         5           Ge  tau(   5) = (  -0.3333333   0.5773503   0.2450980  )
         6           Ge  tau(   6) = (  -0.3333333   0.7698012   0.3000000  )
         7           Ge  tau(   7) = (   0.3333333   0.0000000   0.2450980  )
         8           Ge  tau(   8) = (   0.3333333   0.1924510   0.3000000  )
         9           Ge  tau(   9) = (   0.1666667   0.2886751   0.2450980  )
        10           Ge  tau(  10) = (   0.1666667   0.4811261   0.3000000  )
        11           Ge  tau(  11) = (   0.0000000   0.5773503   0.2450980  )
        12           Ge  tau(  12) = (   0.0000000   0.7698012   0.3000000  )
        13           Ge  tau(  13) = (   0.6666667   0.0000000   0.2450980  )
        14           Ge  tau(  14) = (   0.6666667   0.1924510   0.3000000  )
        15           Ge  tau(  15) = (   0.5000000   0.2886751   0.2450980  )
        16           Ge  tau(  16) = (   0.5000000   0.4811261   0.3000000  )
        17           Ge  tau(  17) = (   0.3333333   0.5773503   0.2450980  )
        18           Ge  tau(  18) = (   0.3333333   0.7698012   0.3000000  )
        19           Si  tau(  19) = (   0.0000000   0.0000000   0.0000000  )
        20           C   tau(  20) = (   0.0000000   0.1443382   0.0000000  )
        21           Si  tau(  21) = (  -0.1250000   0.2165064   0.0000000  )
        22           C   tau(  22) = (  -0.1250000   0.3608446   0.0000000  )
        23           Si  tau(  23) = (  -0.2500000   0.4330127   0.0000000  )
        24           C   tau(  24) = (  -0.2500000   0.5773509   0.0000000  )
        25           Si  tau(  25) = (  -0.3750000   0.6495191   0.0000000  )
        26           C   tau(  26) = (  -0.3750000   0.7938573   0.0000000  )
        27           Si  tau(  27) = (   0.2500000   0.0000000   0.0000000  )
        28           C   tau(  28) = (   0.2500000   0.1443382   0.0000000  )
        29           Si  tau(  29) = (   0.1250000   0.2165064   0.0000000  )
        30           C   tau(  30) = (   0.1250000   0.3608446   0.0000000  )
        31           Si  tau(  31) = (   0.0000000   0.4330127   0.0000000  )
        32           C   tau(  32) = (   0.0000000   0.5773509   0.0000000  )
        33           Si  tau(  33) = (  -0.1250000   0.6495191   0.0000000  )
        34           C   tau(  34) = (  -0.1250000   0.7938573   0.0000000  )
        35           Si  tau(  35) = (   0.5000000   0.0000000   0.0000000  )
        36           C   tau(  36) = (   0.5000000   0.1443382   0.0000000  )
        37           Si  tau(  37) = (   0.3750000   0.2165064   0.0000000  )
        38           C   tau(  38) = (   0.3750000   0.3608446   0.0000000  )
        39           Si  tau(  39) = (   0.2500000   0.4330127   0.0000000  )
        40           C   tau(  40) = (   0.2500000   0.5773509   0.0000000  )
        41           Si  tau(  41) = (   0.1250000   0.6495191   0.0000000  )
        42           C   tau(  42) = (   0.1250000   0.7938573   0.0000000  )
        43           Si  tau(  43) = (   0.7500000   0.0000000   0.0000000  )
        44           C   tau(  44) = (   0.7500000   0.1443382   0.0000000  )
        45           Si  tau(  45) = (   0.6250000   0.2165064   0.0000000  )
        46           C   tau(  46) = (   0.6250000   0.3608446   0.0000000  )
        47           Si  tau(  47) = (   0.5000000   0.4330127   0.0000000  )
        48           C   tau(  48) = (   0.5000000   0.5773509   0.0000000  )
        49           Si  tau(  49) = (   0.3750000   0.6495191   0.0000000  )
        50           C   tau(  50) = (   0.3750000   0.7938573   0.0000000  )

   Crystallographic axes

     site n.     atom                  positions (cryst. coord.)
         1           Ge  tau(   1) = (  0.0000000  0.0000000  0.1500000  )
         2           Ge  tau(   2) = (  0.1111116  0.2222233  0.1836000  )
         3           Ge  tau(   3) = ( -0.0000000  0.3333333  0.1500000  )
         4           Ge  tau(   4) = (  0.1111116  0.5555566  0.1836000  )
         5           Ge  tau(   5) = ( -0.0000000  0.6666667  0.1500000  )
         6           Ge  tau(   6) = (  0.1111116  0.8888899  0.1836000  )
         7           Ge  tau(   7) = (  0.3333333  0.0000000  0.1500000  )
         8           Ge  tau(   8) = (  0.4444450  0.2222233  0.1836000  )
         9           Ge  tau(   9) = (  0.3333333  0.3333333  0.1500000  )
        10           Ge  tau(  10) = (  0.4444450  0.5555566  0.1836000  )
        11           Ge  tau(  11) = (  0.3333333  0.6666667  0.1500000  )
        12           Ge  tau(  12) = (  0.4444450  0.8888899  0.1836000  )
        13           Ge  tau(  13) = (  0.6666667  0.0000000  0.1500000  )
        14           Ge  tau(  14) = (  0.7777783  0.2222233  0.1836000  )
        15           Ge  tau(  15) = (  0.6666667  0.3333333  0.1500000  )
        16           Ge  tau(  16) = (  0.7777783  0.5555566  0.1836000  )
        17           Ge  tau(  17) = (  0.6666667  0.6666667  0.1500000  )
        18           Ge  tau(  18) = (  0.7777783  0.8888899  0.1836000  )
        19           Si  tau(  19) = (  0.0000000  0.0000000  0.0000000  )
        20           C   tau(  20) = (  0.0833337  0.1666674  0.0000000  )
        21           Si  tau(  21) = (  0.0000000  0.2500000  0.0000000  )
        22           C   tau(  22) = (  0.0833337  0.4166674  0.0000000  )
        23           Si  tau(  23) = (  0.0000000  0.5000000  0.0000000  )
        24           C   tau(  24) = (  0.0833337  0.6666674  0.0000000  )
        25           Si  tau(  25) = (  0.0000000  0.7500000  0.0000000  )
        26           C   tau(  26) = (  0.0833337  0.9166674  0.0000000  )
        27           Si  tau(  27) = (  0.2500000  0.0000000  0.0000000  )
        28           C   tau(  28) = (  0.3333337  0.1666674  0.0000000  )
        29           Si  tau(  29) = (  0.2500000  0.2500000  0.0000000  )
        30           C   tau(  30) = (  0.3333337  0.4166674  0.0000000  )
        31           Si  tau(  31) = (  0.2500000  0.5000000  0.0000000  )
        32           C   tau(  32) = (  0.3333337  0.6666674  0.0000000  )
        33           Si  tau(  33) = (  0.2500000  0.7500000  0.0000000  )
        34           C   tau(  34) = (  0.3333337  0.9166674  0.0000000  )
        35           Si  tau(  35) = (  0.5000000  0.0000000  0.0000000  )
        36           C   tau(  36) = (  0.5833337  0.1666674  0.0000000  )
        37           Si  tau(  37) = (  0.5000000  0.2500000  0.0000000  )
        38           C   tau(  38) = (  0.5833337  0.4166674  0.0000000  )
        39           Si  tau(  39) = (  0.5000000  0.5000000  0.0000000  )
        40           C   tau(  40) = (  0.5833337  0.6666674  0.0000000  )
        41           Si  tau(  41) = (  0.5000000  0.7500000  0.0000000  )
        42           C   tau(  42) = (  0.5833337  0.9166674  0.0000000  )
        43           Si  tau(  43) = (  0.7500000  0.0000000  0.0000000  )
        44           C   tau(  44) = (  0.8333337  0.1666674  0.0000000  )
        45           Si  tau(  45) = (  0.7500000  0.2500000  0.0000000  )
        46           C   tau(  46) = (  0.8333337  0.4166674  0.0000000  )
        47           Si  tau(  47) = (  0.7500000  0.5000000  0.0000000  )
        48           C   tau(  48) = (  0.8333337  0.6666674  0.0000000  )
        49           Si  tau(  49) = (  0.7500000  0.7500000  0.0000000  )
        50           C   tau(  50) = (  0.8333337  0.9166674  0.0000000  )

     number of k points=     3  Methfessel-Paxton smearing, width (Ry)=  0.0060
                       cart. coord. in units 2pi/alat
        k(    1) = (   0.0000000   0.0000000   0.0000000), wk =   0.2222222
        k(    2) = (   0.0000000   0.3849002   0.0000000), wk =   1.3333333
        k(    3) = (   0.3333333   0.5773503   0.0000000), wk =   0.4444444

                       cryst. coord.
        k(    1) = (   0.0000000   0.0000000   0.0000000), wk =   0.2222222
        k(    2) = (   0.0000000   0.3333333   0.0000000), wk =   1.3333333
        k(    3) = (   0.3333333   0.3333333   0.0000000), wk =   0.4444444

     Initial potential from superposition of free atoms
     Check: negative starting charge=   -0.006924

     starting charge  199.97158, renormalised to  200.00000

     negative rho (up, down):  6.925E-03 0.000E+00
     Starting wfcs are  800 randomized atomic wfcs

     Self-consistent Calculation

     iteration #  1     ecut=    30.00 Ry     beta= 0.70
     Davidson diagonalization with overlap
     ethr =  1.00E-02,  avg # of iterations =  2.0

     negative rho (up, down):  1.437E-03 0.000E+00

     total energy              =    -444.40592753 Ry
     Harris-Foulkes estimate   =    -451.56264949 Ry
     estimated scf accuracy    <      10.52909260 Ry

[...]

     negative rho (up, down):  1.041E-06 0.000E+00

[...]

     total energy              =    -448.65643389 Ry
     Harris-Foulkes estimate   =    -448.65647641 Ry
     estimated scf accuracy    <       0.00014517 Ry

     iteration # 14     ecut=    30.00 Ry     beta= 0.70
     Davidson diagonalization with overlap
     ethr =  7.26E-08,  avg # of iterations =  2.3

     End of self-consistent calculation

          k = 0.0000 0.0000 0.0000 ( 48515 PWs)   bands (ev):

   -16.0361 -15.0837 -15.0447 -15.0447 -14.9514 -14.9514 -14.8913 -13.3557
   -13.3219 -13.2035 -13.2035 -13.1727 -13.1727 -12.9560 -12.9560 -12.9469
   -12.0419 -10.9358 -10.9358 -10.9246 -10.9009 -10.8950 -10.8950 -10.0595
   -10.0594 -10.0535  -9.2141  -9.2110  -9.0750  -9.0750  -8.8456  -8.8456
    -8.7657  -8.7657  -8.7100  -8.7048  -7.0335  -7.0334  -7.0041  -6.9678
    -6.9627  -6.9627  -6.8118  -6.8118  -6.7629  -6.7238  -6.7238  -6.7070
    -6.6869  -6.6123  -6.6122  -6.5494  -6.5493  -6.5266  -6.3429  -5.1902
    -5.1579  -5.1579  -5.0777  -5.0777  -5.0344  -4.9114  -4.9110  -4.9109
    -4.6542  -4.6542  -4.2568  -4.2375  -4.2374  -4.1991  -4.1990  -4.1767
    -3.7879  -3.4877  -3.4795  -3.3091  -3.3089  -3.1383  -3.1383  -2.9328
    -2.9290  -2.9290  -2.9235  -2.9235  -2.6580  -2.6157  -2.6157  -2.5746
    -2.5746  -2.5721  -2.2156  -2.2156  -2.2014  -2.1075  -2.0964  -2.0964
    -1.4144  -1.4143  -0.6617  -0.6617  -0.6000  -0.5905  -0.4827  -0.3041
    -0.3040  -0.2561   0.3374   0.3374   0.3534   0.5503   0.5503   0.7121
     1.0735   1.0735   1.1461   1.2338   1.3908   1.3908   1.4994   1.6629

     occupation numbers
     1.0000   1.0000   1.0000   1.0000   1.0000   1.0000   1.0000   1.0000
     1.0000   1.0000   1.0000   1.0000   1.0000   1.0000   1.0000   1.0000
     1.0000   1.0000   1.0000   1.0000   1.0000   1.0000   1.0000   1.0000
     1.0000   1.0000   1.0000   1.0000   1.0000   1.0000   1.0000   1.0000
     1.0000   1.0000   1.0000   1.0000   1.0000   1.0000   1.0000   1.0000
     1.0000   1.0000   1.0000   1.0000   1.0000   1.0000   1.0000   1.0000
     1.0000   1.0000   1.0000   1.0000   1.0000   1.0000   1.0000   1.0000
     1.0000   1.0000   1.0000   1.0000   1.0000   1.0000   1.0000   1.0000
     1.0000   1.0000   1.0000   1.0000   1.0000   1.0000   1.0000   1.0000
     1.0000   1.0000   1.0000   1.0000   1.0000   1.0000   1.0000   1.0000
     1.0000   1.0000   1.0000   1.0000   1.0000   1.0000   1.0000   1.0000
     1.0000   1.0000   1.0000   1.0000   1.0000   1.0000   1.0000   1.0000
     1.0000   1.0000   0.8392   0.8392   0.2509   0.1728  -0.0166  -0.0000
    -0.0000  -0.0000  -0.0000  -0.0000  -0.0000  -0.0000  -0.0000  -0.0000
    -0.0000  -0.0000  -0.0000  -0.0000  -0.0000  -0.0000  -0.0000  -0.0000

[...]

          k = 0.3333 0.5774 0.0000 ( 48552 PWs)   bands (ev):

   -15.7714 -15.6611 -15.6068 -14.6714 -14.6687 -14.6625 -13.8660 -13.8202
   -13.8093 -13.7169 -13.7065 -13.6650 -12.8457 -12.7340 -12.6686 -12.3805
   -11.6678 -11.6530 -11.6353 -10.5706 -10.5450 -10.5399  -9.9948  -9.9701
    -9.9577  -9.8173  -9.7761  -9.7225  -9.3723  -8.8397  -8.8313  -8.8056
    -8.7619  -8.7477  -8.7222  -8.3173  -8.3134  -8.2871  -7.8246  -7.4152
    -7.3925  -7.3921  -6.9469  -6.9399  -6.9385  -6.4171  -6.3863  -6.3329
    -6.1459  -6.0605  -6.0561  -5.2291  -5.2200  -5.1844  -5.1672  -5.1399
    -5.1357  -5.0725  -5.0666  -5.0633  -4.8420  -4.8395  -4.8301  -4.7922
    -4.7831  -4.7645  -4.6643  -4.6316  -4.6146  -4.0287  -3.9806  -3.9543
    -3.8343  -3.8203  -3.8114  -3.8077  -3.7978  -3.7881  -3.7695  -3.7627
    -3.7217  -3.4060  -3.3738  -3.3548  -2.7235  -2.5870  -2.5833  -2.5811
    -2.4890  -2.4777  -2.2304  -2.2198  -2.2194  -2.0433  -1.7834  -1.7698
    -1.6693  -1.3473  -1.3400  -1.3306  -0.5033  -0.3608  -0.1546  -0.0288
     0.0013   0.3222   0.7221   1.0630   1.0731   1.0750   1.1308   1.1492
     1.3709   1.3833   1.4294   1.4329   1.4669   1.4870   1.7116   1.7855

     occupation numbers
     1.0000   1.0000   1.0000   1.0000   1.0000   1.0000   1.0000   1.0000
     1.0000   1.0000   1.0000   1.0000   1.0000   1.0000   1.0000   1.0000
     1.0000   1.0000   1.0000   1.0000   1.0000   1.0000   1.0000   1.0000
     1.0000   1.0000   1.0000   1.0000   1.0000   1.0000   1.0000   1.0000
     1.0000   1.0000   1.0000   1.0000   1.0000   1.0000   1.0000   1.0000
     1.0000   1.0000   1.0000   1.0000   1.0000   1.0000   1.0000   1.0000
     1.0000   1.0000   1.0000   1.0000   1.0000   1.0000   1.0000   1.0000
     1.0000   1.0000   1.0000   1.0000   1.0000   1.0000   1.0000   1.0000
     1.0000   1.0000   1.0000   1.0000   1.0000   1.0000   1.0000   1.0000
     1.0000   1.0000   1.0000   1.0000   1.0000   1.0000   1.0000   1.0000
     1.0000   1.0000   1.0000   1.0000   1.0000   1.0000   1.0000   1.0000
     1.0000   1.0000   1.0000   1.0000   1.0000   1.0000   1.0000   1.0000
     1.0000   1.0000   1.0000   1.0000  -0.0279  -0.0000  -0.0000  -0.0000
    -0.0000  -0.0000  -0.0000  -0.0000  -0.0000  -0.0000  -0.0000  -0.0000
    -0.0000  -0.0000  -0.0000  -0.0000  -0.0000  -0.0000  -0.0000  -0.0000

     the Fermi energy is    -0.6253 ev

!    total energy              =    -448.65643116 Ry
     Harris-Foulkes estimate   =    -448.65644980 Ry
     estimated scf accuracy    <       0.00002189 Ry

     The total energy is the sum of the following terms:

     one-electron contribution =   -3442.07524878 Ry
     hartree contribution      =    1757.97929798 Ry
     xc contribution           =    -136.22735811 Ry
     ewald contribution        =    1372.24491546 Ry
     Dispersion Correction     =      -0.57789412 Ry
     smearing contrib. (-TS)   =      -0.00014359 Ry

     convergence has been achieved in  14 iterations

     Writing output data file Ge+SiC_I__3.0.save/

     General routines

     Parallel routines

   This run was terminated on:  21:29:32  16Apr2020

   JOB DONE.