     Program PWSCF v.6.3 starts on 17Apr2020 at 18: 0:41

     Reading input from /home/nano3/Desktop/RAYID/Ge+SiC/Ge+SiC_I/Ge+SiC_I__3.4.scf.in

     Current dimensions of program PWSCF are:
     Max number of different atomic species (ntypx) = 10
     Max number of k-points (npk) =  40000
     Max angular momentum in pseudopotentials (lmaxx) =  3

     IMPORTANT: XC functional enforced from input :
     Exchange-correlation      = PBE ( 1  4  3  4 0 0)
     Any further DFT definition will be discarded
     Please, verify this is what you really want

               file Ge.pbe-mt_fhi.UPF: wavefunction(s)  4d 4f renormalized
               file C.pbe-mt_fhi.UPF: wavefunction(s)  4f renormalized
               file Si.pbe-mt_fhi.UPF: wavefunction(s)  4f renormalized

     Parameters for Dispersion (Grimme-D2) Correction:
       atom      VdW radius       C_6

        Ge         3.264        593.221
        C          2.744         60.710
        Si         3.243        320.200

     Subspace diagonalization in iterative solution of the eigenvalue problem:
     a serial algorithm will be used

     bravais-lattice index     =            4
     lattice parameter (alat)  =      23.1302  a.u.
     unit-cell volume          =   17511.3678 (a.u.)^3
     number of atoms/cell      =           50
     number of atomic types    =            3
     number of electrons       =       200.00
     number of Kohn-Sham states=          120
     kinetic-energy cutoff     =      30.0000  Ry
     charge density cutoff     =     120.0000  Ry
     convergence threshold     =      1.0E-04
     mixing beta               =       0.7000
     number of iterations used =            8  plain     mixing
     Exchange-correlation      = PBE ( 1  4  3  4 0 0)

     celldm(1)=  23.130248  celldm(2)=   0.000000  celldm(3)=   1.633987
     celldm(4)=   0.000000  celldm(5)=   0.000000  celldm(6)=   0.000000

     crystal axes: (cart. coord. in units of alat)
               a(1) = (   1.000000   0.000000   0.000000 )
               a(2) = (  -0.500000   0.866025   0.000000 )
               a(3) = (   0.000000   0.000000   1.633987 )

     reciprocal axes: (cart. coord. in units 2 pi/alat)
               b(1) = (  1.000000  0.577350 -0.000000 )
               b(2) = (  0.000000  1.154701  0.000000 )
               b(3) = (  0.000000 -0.000000  0.612000 )

     PseudoPot. # 1 for Ge read from file:
     /home/nano3/Desktop/RAYID/qe-6.3/bin/pseudo/Ge.pbe-mt_fhi.UPF
     MD5 check sum: b08ff19c3d362044f6e29226b459d86a
     Pseudo is Norm-conserving, Zval =  4.0
     Generated using FHI98PP, converted with fhi2upf.x v.5.0.2
     Using radial grid of  529 points,  3 beta functions with:
                l(1) =   1
                l(2) =   2
                l(3) =   3

     PseudoPot. # 2 for C  read from file:
     /home/nano3/Desktop/RAYID/qe-6.3/bin/pseudo/C.pbe-mt_fhi.UPF
     MD5 check sum: 058ca341f9d6d5327d9962fd88a91b65
     Pseudo is Norm-conserving, Zval =  4.0
     Generated using FHI98PP, converted with fhi2upf.x v.5.0.2
     Using radial grid of  461 points,  3 beta functions with:
                l(1) =   0
                l(2) =   1
                l(3) =   3

     PseudoPot. # 3 for Si read from file:
     /home/nano3/Desktop/RAYID/qe-6.3/bin/pseudo/Si.pbe-mt_fhi.UPF
     MD5 check sum: 259057c2adf9952f9ced37ae3d9e311d
     Pseudo is Norm-conserving, Zval =  4.0
     Generated using FHI98PP, converted with fhi2upf.x v.5.0.2
     Using radial grid of  495 points,  3 beta functions with:
                l(1) =   0
                l(2) =   1
                l(3) =   3

     atomic species   valence    mass     pseudopotential
        Ge             4.00    72.59000     Ge( 1.00)
        C              4.00    12.01070     C ( 1.00)
        Si             4.00    28.08550     Si( 1.00)

      6 Sym. Ops. (no inversion) found

                                    s                        frac. trans.

      isym =  1     identity

 cryst.   s( 1) = (     1          0          0      )
                  (     0          1          0      )
                  (     0          0          1      )

 cart.    s( 1) = (  1.0000000  0.0000000  0.0000000 )
                  (  0.0000000  1.0000000  0.0000000 )
                  (  0.0000000  0.0000000  1.0000000 )

      isym =  2     120 deg rotation - cryst. axis [0,0,1]

[...]

      isym =  3     120 deg rotation - cryst. axis [0,0,-1]

[...]

      isym =  4     inv. 180 deg rotation - cart. axis [1,0,0]

[...]

      isym =  5     inv. 180 deg rotation - cryst. axis [0,1,0]

[...]

      isym =  6     inv. 180 deg rotation - cryst. axis [1,1,0]

 cryst.   s( 6) = (     0         -1          0      )
                  (    -1          0          0      )
                  (     0          0          1      )

 cart.    s( 6) = (  0.5000000 -0.8660254  0.0000000 )
                  ( -0.8660254 -0.5000000  0.0000000 )
                  (  0.0000000  0.0000000  1.0000000 )

     point group C_3v (3m)
     there are  3 classes
     the character table:

       E     2C3   3s_v
A_1    1.00  1.00  1.00
A_2    1.00  1.00 -1.00
E      2.00 -1.00  0.00

     the symmetry operations in each class and the name of the first element:

     E        1
          identity
     2C3      2    3
          120 deg rotation - cryst. axis [0,0,1]
     3s_v     4    5    6
          inv. 180 deg rotation - cart. axis [1,0,0]

   Cartesian axes

     site n.     atom                  positions (alat units)
         1           Ge  tau(   1) = (   0.0000000   0.0000000   0.2777778  )
         2           Ge  tau(   2) = (   0.0000000   0.1924510   0.3326797  )
         3           Ge  tau(   3) = (  -0.1666667   0.2886751   0.2777778  )
         4           Ge  tau(   4) = (  -0.1666667   0.4811261   0.3326797  )
         5           Ge  tau(   5) = (  -0.3333333   0.5773503   0.2777778  )
         6           Ge  tau(   6) = (  -0.3333333   0.7698012   0.3326797  )
         7           Ge  tau(   7) = (   0.3333333   0.0000000   0.2777778  )
         8           Ge  tau(   8) = (   0.3333333   0.1924510   0.3326797  )
         9           Ge  tau(   9) = (   0.1666667   0.2886751   0.2777778  )
        10           Ge  tau(  10) = (   0.1666667   0.4811261   0.3326797  )
        11           Ge  tau(  11) = (   0.0000000   0.5773503   0.2777778  )
        12           Ge  tau(  12) = (   0.0000000   0.7698012   0.3326797  )
        13           Ge  tau(  13) = (   0.6666667   0.0000000   0.2777778  )
        14           Ge  tau(  14) = (   0.6666667   0.1924510   0.3326797  )
        15           Ge  tau(  15) = (   0.5000000   0.2886751   0.2777778  )
        16           Ge  tau(  16) = (   0.5000000   0.4811261   0.3326797  )
        17           Ge  tau(  17) = (   0.3333333   0.5773503   0.2777778  )
        18           Ge  tau(  18) = (   0.3333333   0.7698012   0.3326797  )
        19           Si  tau(  19) = (   0.0000000   0.0000000   0.0000000  )
        20           C   tau(  20) = (   0.0000000   0.1443382   0.0000000  )
        21           Si  tau(  21) = (  -0.1250000   0.2165064   0.0000000  )
        22           C   tau(  22) = (  -0.1250000   0.3608446   0.0000000  )
        23           Si  tau(  23) = (  -0.2500000   0.4330127   0.0000000  )
        24           C   tau(  24) = (  -0.2500000   0.5773509   0.0000000  )
        25           Si  tau(  25) = (  -0.3750000   0.6495191   0.0000000  )
        26           C   tau(  26) = (  -0.3750000   0.7938573   0.0000000  )
        27           Si  tau(  27) = (   0.2500000   0.0000000   0.0000000  )
        28           C   tau(  28) = (   0.2500000   0.1443382   0.0000000  )
        29           Si  tau(  29) = (   0.1250000   0.2165064   0.0000000  )
        30           C   tau(  30) = (   0.1250000   0.3608446   0.0000000  )
        31           Si  tau(  31) = (   0.0000000   0.4330127   0.0000000  )
        32           C   tau(  32) = (   0.0000000   0.5773509   0.0000000  )
        33           Si  tau(  33) = (  -0.1250000   0.6495191   0.0000000  )
        34           C   tau(  34) = (  -0.1250000   0.7938573   0.0000000  )
        35           Si  tau(  35) = (   0.5000000   0.0000000   0.0000000  )
        36           C   tau(  36) = (   0.5000000   0.1443382   0.0000000  )
        37           Si  tau(  37) = (   0.3750000   0.2165064   0.0000000  )
        38           C   tau(  38) = (   0.3750000   0.3608446   0.0000000  )
        39           Si  tau(  39) = (   0.2500000   0.4330127   0.0000000  )
        40           C   tau(  40) = (   0.2500000   0.5773509   0.0000000  )
        41           Si  tau(  41) = (   0.1250000   0.6495191   0.0000000  )
        42           C   tau(  42) = (   0.1250000   0.7938573   0.0000000  )
        43           Si  tau(  43) = (   0.7500000   0.0000000   0.0000000  )
        44           C   tau(  44) = (   0.7500000   0.1443382   0.0000000  )
        45           Si  tau(  45) = (   0.6250000   0.2165064   0.0000000  )
        46           C   tau(  46) = (   0.6250000   0.3608446   0.0000000  )
        47           Si  tau(  47) = (   0.5000000   0.4330127   0.0000000  )
        48           C   tau(  48) = (   0.5000000   0.5773509   0.0000000  )
        49           Si  tau(  49) = (   0.3750000   0.6495191   0.0000000  )
        50           C   tau(  50) = (   0.3750000   0.7938573   0.0000000  )

   Crystallographic axes

     site n.     atom                  positions (cryst. coord.)
         1           Ge  tau(   1) = (  0.0000000  0.0000000  0.1700000  )
         2           Ge  tau(   2) = (  0.1111116  0.2222233  0.2036000  )
         3           Ge  tau(   3) = ( -0.0000000  0.3333333  0.1700000  )
         4           Ge  tau(   4) = (  0.1111116  0.5555566  0.2036000  )
         5           Ge  tau(   5) = ( -0.0000000  0.6666667  0.1700000  )
         6           Ge  tau(   6) = (  0.1111116  0.8888899  0.2036000  )
         7           Ge  tau(   7) = (  0.3333333  0.0000000  0.1700000  )
         8           Ge  tau(   8) = (  0.4444450  0.2222233  0.2036000  )
         9           Ge  tau(   9) = (  0.3333333  0.3333333  0.1700000  )
        10           Ge  tau(  10) = (  0.4444450  0.5555566  0.2036000  )
        11           Ge  tau(  11) = (  0.3333333  0.6666667  0.1700000  )
        12           Ge  tau(  12) = (  0.4444450  0.8888899  0.2036000  )
        13           Ge  tau(  13) = (  0.6666667  0.0000000  0.1700000  )
        14           Ge  tau(  14) = (  0.7777783  0.2222233  0.2036000  )
        15           Ge  tau(  15) = (  0.6666667  0.3333333  0.1700000  )
        16           Ge  tau(  16) = (  0.7777783  0.5555566  0.2036000  )
        17           Ge  tau(  17) = (  0.6666667  0.6666667  0.1700000  )
        18           Ge  tau(  18) = (  0.7777783  0.8888899  0.2036000  )
        19           Si  tau(  19) = (  0.0000000  0.0000000  0.0000000  )
        20           C   tau(  20) = (  0.0833337  0.1666674  0.0000000  )
        21           Si  tau(  21) = (  0.0000000  0.2500000  0.0000000  )
        22           C   tau(  22) = (  0.0833337  0.4166674  0.0000000  )
        23           Si  tau(  23) = (  0.0000000  0.5000000  0.0000000  )
        24           C   tau(  24) = (  0.0833337  0.6666674  0.0000000  )
        25           Si  tau(  25) = (  0.0000000  0.7500000  0.0000000  )
        26           C   tau(  26) = (  0.0833337  0.9166674  0.0000000  )
        27           Si  tau(  27) = (  0.2500000  0.0000000  0.0000000  )
        28           C   tau(  28) = (  0.3333337  0.1666674  0.0000000  )
        29           Si  tau(  29) = (  0.2500000  0.2500000  0.0000000  )
        30           C   tau(  30) = (  0.3333337  0.4166674  0.0000000  )
        31           Si  tau(  31) = (  0.2500000  0.5000000  0.0000000  )
        32           C   tau(  32) = (  0.3333337  0.6666674  0.0000000  )
        33           Si  tau(  33) = (  0.2500000  0.7500000  0.0000000  )
        34           C   tau(  34) = (  0.3333337  0.9166674  0.0000000  )
        35           Si  tau(  35) = (  0.5000000  0.0000000  0.0000000  )
        36           C   tau(  36) = (  0.5833337  0.1666674  0.0000000  )
        37           Si  tau(  37) = (  0.5000000  0.2500000  0.0000000  )
        38           C   tau(  38) = (  0.5833337  0.4166674  0.0000000  )
        39           Si  tau(  39) = (  0.5000000  0.5000000  0.0000000  )
        40           C   tau(  40) = (  0.5833337  0.6666674  0.0000000  )
        41           Si  tau(  41) = (  0.5000000  0.7500000  0.0000000  )
        42           C   tau(  42) = (  0.5833337  0.9166674  0.0000000  )
        43           Si  tau(  43) = (  0.7500000  0.0000000  0.0000000  )
        44           C   tau(  44) = (  0.8333337  0.1666674  0.0000000  )
        45           Si  tau(  45) = (  0.7500000  0.2500000  0.0000000  )
        46           C   tau(  46) = (  0.8333337  0.4166674  0.0000000  )
        47           Si  tau(  47) = (  0.7500000  0.5000000  0.0000000  )
        48           C   tau(  48) = (  0.8333337  0.6666674  0.0000000  )
        49           Si  tau(  49) = (  0.7500000  0.7500000  0.0000000  )
        50           C   tau(  50) = (  0.8333337  0.9166674  0.0000000  )

     number of k points=     3  Methfessel-Paxton smearing, width (Ry)=  0.0060
                       cart. coord. in units 2pi/alat
        k(    1) = (   0.0000000   0.0000000   0.0000000), wk =   0.2222222
        k(    2) = (   0.0000000   0.3849002   0.0000000), wk =   1.3333333
        k(    3) = (   0.3333333   0.5773503   0.0000000), wk =   0.4444444

                       cryst. coord.
        k(    1) = (   0.0000000   0.0000000   0.0000000), wk =   0.2222222
        k(    2) = (   0.0000000   0.3333333   0.0000000), wk =   1.3333333
        k(    3) = (   0.3333333   0.3333333   0.0000000), wk =   0.4444444

     Initial potential from superposition of free atoms
     Check: negative starting charge=   -0.006564

     starting charge  199.97158, renormalised to  200.00000

     negative rho (up, down):  6.565E-03 0.000E+00
     Starting wfcs are  800 randomized atomic wfcs

     Self-consistent Calculation

     iteration #  1     ecut=    30.00 Ry     beta= 0.70
     Davidson diagonalization with overlap
     ethr =  1.00E-02,  avg # of iterations =  2.0

     negative rho (up, down):  1.358E-03 0.000E+00

     total energy              =    -444.70051692 Ry
     Harris-Foulkes estimate   =    -451.60778395 Ry
     estimated scf accuracy    <      10.30049111 Ry

[...]

     negative rho (up, down):  6.440E-08 0.000E+00

[...]

     total energy              =    -448.66862911 Ry
     Harris-Foulkes estimate   =    -448.66868178 Ry
     estimated scf accuracy    <       0.00017133 Ry

     iteration # 12     ecut=    30.00 Ry     beta= 0.70
     Davidson diagonalization with overlap
     ethr =  8.57E-08,  avg # of iterations =  2.3

     End of self-consistent calculation

          k = 0.0000 0.0000 0.0000 ( 48515 PWs)   bands (ev):

   -15.8315 -14.8506 -14.8272 -14.8272 -14.7766 -14.7766 -14.7477 -13.0952
   -13.0820 -13.0299 -13.0299 -13.0059 -13.0059 -12.7984 -12.7983 -12.7916
   -12.0404 -10.9174 -10.9169 -10.9169 -10.9020 -10.9020 -10.8993  -9.8650
    -9.8649  -9.8636  -9.1294  -9.1278  -9.0730  -9.0730  -8.6427  -8.6427
    -8.6109  -8.6109  -8.5930  -8.5918  -6.9388  -6.9387  -6.9370  -6.9260
    -6.9259  -6.9248  -6.6408  -6.6407  -6.5942  -6.5890  -6.5865  -6.5865
    -6.4487  -6.4261  -6.4261  -6.3950  -6.3950  -6.3811  -6.0217  -4.8781
    -4.8573  -4.8573  -4.8120  -4.8120  -4.7885  -4.7316  -4.7316  -4.7314
    -4.5815  -4.5815  -4.0906  -4.0679  -4.0580  -4.0580  -4.0382  -4.0382
    -4.0271  -3.1459  -3.1458  -3.0834  -3.0805  -2.8767  -2.8767  -2.7967
    -2.7967  -2.7190  -2.7163  -2.7163  -2.6298  -2.6128  -2.6127  -2.5940
    -2.5938  -2.5938  -2.4414  -2.4414  -2.4380  -2.3519  -2.3514  -2.3514
    -1.4157  -1.4156  -0.7926  -0.7926  -0.7192  -0.7062  -0.6174  -0.0017
    -0.0016   0.0099   0.3598   0.3753   0.3753   0.6806   0.6806   0.7223
     1.0847   1.0847   1.1291   1.1623   1.3924   1.4331   1.4332   1.6487

     occupation numbers
     1.0000   1.0000   1.0000   1.0000   1.0000   1.0000   1.0000   1.0000
     1.0000   1.0000   1.0000   1.0000   1.0000   1.0000   1.0000   1.0000
     1.0000   1.0000   1.0000   1.0000   1.0000   1.0000   1.0000   1.0000
     1.0000   1.0000   1.0000   1.0000   1.0000   1.0000   1.0000   1.0000
     1.0000   1.0000   1.0000   1.0000   1.0000   1.0000   1.0000   1.0000
     1.0000   1.0000   1.0000   1.0000   1.0000   1.0000   1.0000   1.0000
     1.0000   1.0000   1.0000   1.0000   1.0000   1.0000   1.0000   1.0000
     1.0000   1.0000   1.0000   1.0000   1.0000   1.0000   1.0000   1.0000
     1.0000   1.0000   1.0000   1.0000   1.0000   1.0000   1.0000   1.0000
     1.0000   1.0000   1.0000   1.0000   1.0000   1.0000   1.0000   1.0000
     1.0000   1.0000   1.0000   1.0000   1.0000   1.0000   1.0000   1.0000
     1.0000   1.0000   1.0000   1.0000   1.0000   1.0000   1.0000   1.0000
     1.0000   1.0000   0.8678   0.8678   0.1877   0.0975  -0.0207  -0.0000
    -0.0000  -0.0000  -0.0000  -0.0000  -0.0000  -0.0000  -0.0000  -0.0000
    -0.0000  -0.0000  -0.0000  -0.0000  -0.0000  -0.0000  -0.0000  -0.0000

[...]

          k = 0.3333 0.5774 0.0000 ( 48552 PWs)   bands (ev):

   -15.5292 -15.4721 -15.4412 -14.4748 -14.4737 -14.4722 -13.6254 -13.6009
   -13.6003 -13.5502 -13.5497 -13.5263 -12.6204 -12.5634 -12.5311 -12.2079
   -11.6565 -11.6526 -11.6399 -10.5473 -10.5415 -10.5407  -9.9750  -9.9612
    -9.9590  -9.6067  -9.5753  -9.5555  -9.1702  -8.6235  -8.6169  -8.6062
    -8.5843  -8.5769  -8.5654  -8.3139  -8.3087  -8.3035  -7.6607  -7.3925
    -7.3920  -7.3851  -6.7641  -6.7624  -6.7623  -6.2185  -6.2043  -6.1757
    -5.7754  -5.7256  -5.7245  -5.0148  -5.0120  -4.9927  -4.9763  -4.9682
    -4.9601  -4.9346  -4.9214  -4.9212  -4.9131  -4.9040  -4.9029  -4.4971
    -4.4962  -4.4954  -4.4894  -4.4721  -4.4604  -3.7617  -3.7611  -3.7516
    -3.6641  -3.6533  -3.6422  -3.6280  -3.6154  -3.5814  -3.5795  -3.5788
    -3.5652  -3.3547  -3.3324  -3.3208  -2.8001  -2.8000  -2.7969  -2.4563
    -2.3791  -2.3187  -2.2186  -2.2172  -2.2149  -2.0139  -2.0011  -1.9348
    -1.8863  -1.5728  -1.5714  -1.5695  -0.3319  -0.2129  -0.1531  -0.0640
     0.1999   0.4090   0.8181   0.9603   1.0705   1.2253   1.2346   1.2483
     1.3784   1.4246   1.4296   1.4365   1.4377   1.4537   1.5193   1.8753

     occupation numbers
     1.0000   1.0000   1.0000   1.0000   1.0000   1.0000   1.0000   1.0000
     1.0000   1.0000   1.0000   1.0000   1.0000   1.0000   1.0000   1.0000
     1.0000   1.0000   1.0000   1.0000   1.0000   1.0000   1.0000   1.0000
     1.0000   1.0000   1.0000   1.0000   1.0000   1.0000   1.0000   1.0000
     1.0000   1.0000   1.0000   1.0000   1.0000   1.0000   1.0000   1.0000
     1.0000   1.0000   1.0000   1.0000   1.0000   1.0000   1.0000   1.0000
     1.0000   1.0000   1.0000   1.0000   1.0000   1.0000   1.0000   1.0000
     1.0000   1.0000   1.0000   1.0000   1.0000   1.0000   1.0000   1.0000
     1.0000   1.0000   1.0000   1.0000   1.0000   1.0000   1.0000   1.0000
     1.0000   1.0000   1.0000   1.0000   1.0000   1.0000   1.0000   1.0000
     1.0000   1.0000   1.0000   1.0000   1.0000   1.0000   1.0000   1.0000
     1.0000   1.0000   1.0000   1.0000   1.0000   1.0000   1.0000   1.0000
     1.0000   1.0000   1.0000   1.0000  -0.0000  -0.0000  -0.0000  -0.0000
    -0.0000  -0.0000  -0.0000  -0.0000  -0.0000  -0.0000  -0.0000  -0.0000
    -0.0000  -0.0000  -0.0000  -0.0000  -0.0000  -0.0000  -0.0000  -0.0000

     the Fermi energy is    -0.7521 ev

!    total energy              =    -448.66859124 Ry
     Harris-Foulkes estimate   =    -448.66866239 Ry
     estimated scf accuracy    <       0.00007886 Ry

     The total energy is the sum of the following terms:

     one-electron contribution =   -3199.71875317 Ry
     hartree contribution      =    1637.34224325 Ry
     xc contribution           =    -135.88538382 Ry
     ewald contribution        =    1250.11520336 Ry
     Dispersion Correction     =      -0.52164790 Ry
     smearing contrib. (-TS)   =      -0.00025297 Ry

     convergence has been achieved in  12 iterations

     Writing output data file Ge+SiC_I__3.4.save/

     General routines

     Parallel routines

   This run was terminated on:  18:30:30  17Apr2020

   JOB DONE.