     Program PWSCF v.6.3 starts on 17Apr2020 at 12:35:37

     Reading input from /home/nano3/Desktop/RAYID/Ge+SiC/Ge+SiC_III/Ge+SiC_III__3.2.scf.in

     Current dimensions of program PWSCF are:
     Max number of different atomic species (ntypx) = 10
     Max number of k-points (npk) =  40000
     Max angular momentum in pseudopotentials (lmaxx) =  3

     IMPORTANT: XC functional enforced from input :
     Exchange-correlation      = PBE ( 1  4  3  4 0 0)
     Any further DFT definition will be discarded
     Please, verify this is what you really want

               file Ge.pbe-mt_fhi.UPF: wavefunction(s)  4d 4f renormalized
               file C.pbe-mt_fhi.UPF: wavefunction(s)  4f renormalized
               file Si.pbe-mt_fhi.UPF: wavefunction(s)  4f renormalized

     Parameters for Dispersion (Grimme-D2) Correction:
       atom      VdW radius       C_6

        Ge         3.264        593.221
        C          2.744         60.710
        Si         3.243        320.200

     Subspace diagonalization in iterative solution of the eigenvalue problem:
     a serial algorithm will be used

     bravais-lattice index     =            4
     lattice parameter (alat)  =      23.1302  a.u.
     unit-cell volume          =   17511.3678 (a.u.)^3
     number of atoms/cell      =           50
     number of atomic types    =            3
     number of electrons       =       200.00
     number of Kohn-Sham states=          120
     kinetic-energy cutoff     =      30.0000  Ry
     charge density cutoff     =     120.0000  Ry
     convergence threshold     =      1.0E-04
     mixing beta               =       0.7000
     number of iterations used =            8  plain     mixing
     Exchange-correlation      = PBE ( 1  4  3  4 0 0)

     celldm(1)=  23.130248  celldm(2)=   0.000000  celldm(3)=   1.633987
     celldm(4)=   0.000000  celldm(5)=   0.000000  celldm(6)=   0.000000

     crystal axes: (cart. coord. in units of alat)
               a(1) = (   1.000000   0.000000   0.000000 )
               a(2) = (  -0.500000   0.866025   0.000000 )
               a(3) = (   0.000000   0.000000   1.633987 )

     reciprocal axes: (cart. coord. in units 2 pi/alat)
               b(1) = (  1.000000  0.577350 -0.000000 )
               b(2) = (  0.000000  1.154701  0.000000 )
               b(3) = (  0.000000 -0.000000  0.612000 )

     PseudoPot. # 1 for Ge read from file:
     /home/nano3/Desktop/RAYID/qe-6.3/bin/pseudo/Ge.pbe-mt_fhi.UPF
     MD5 check sum: b08ff19c3d362044f6e29226b459d86a
     Pseudo is Norm-conserving, Zval =  4.0
     Generated using FHI98PP, converted with fhi2upf.x v.5.0.2
     Using radial grid of  529 points,  3 beta functions with:
                l(1) =   1
                l(2) =   2
                l(3) =   3

     PseudoPot. # 2 for C  read from file:
     /home/nano3/Desktop/RAYID/qe-6.3/bin/pseudo/C.pbe-mt_fhi.UPF
     MD5 check sum: 058ca341f9d6d5327d9962fd88a91b65
     Pseudo is Norm-conserving, Zval =  4.0
     Generated using FHI98PP, converted with fhi2upf.x v.5.0.2
     Using radial grid of  461 points,  3 beta functions with:
                l(1) =   0
                l(2) =   1
                l(3) =   3

     PseudoPot. # 3 for Si read from file:
     /home/nano3/Desktop/RAYID/qe-6.3/bin/pseudo/Si.pbe-mt_fhi.UPF
     MD5 check sum: 259057c2adf9952f9ced37ae3d9e311d
     Pseudo is Norm-conserving, Zval =  4.0
     Generated using FHI98PP, converted with fhi2upf.x v.5.0.2
     Using radial grid of  495 points,  3 beta functions with:
                l(1) =   0
                l(2) =   1
                l(3) =   3

     atomic species   valence    mass     pseudopotential
        Ge             4.00    72.59000     Ge( 1.00)
        C              4.00    12.01070     C ( 1.00)
        Si             4.00    28.08550     Si( 1.00)

      2 Sym. Ops. (no inversion) found

                                    s                        frac. trans.

      isym =  1     identity

 cryst.   s( 1) = (     1          0          0      )
                  (     0          1          0      )
                  (     0          0          1      )

 cart.    s( 1) = (  1.0000000  0.0000000  0.0000000 )
                  (  0.0000000  1.0000000  0.0000000 )
                  (  0.0000000  0.0000000  1.0000000 )

      isym =  2     inv. 180 deg rotation - cart. axis [1,0,0]

 cryst.   s( 2) = (    -1          0          0      )
                  (     1          1          0      )
                  (     0          0          1      )

 cart.    s( 2) = ( -1.0000000  0.0000000  0.0000000 )
                  (  0.0000000  1.0000000  0.0000000 )
                  (  0.0000000  0.0000000  1.0000000 )

     point group C_s (m)
     there are  2 classes
     the character table:

       E     s
A'     1.00  1.00
A''    1.00 -1.00

     the symmetry operations in each class and the name of the first element:

     E        1
          identity
     s        2
          inv. 180 deg rotation - cart. axis [1,0,0]

   Cartesian axes

     site n.     atom                  positions (alat units)
         1           Ge  tau(   1) = (   0.0000000   0.1847712   0.3163399  )
         2           Ge  tau(   2) = (  -0.1666667   0.4734464   0.3163399  )
         3           Ge  tau(   3) = (  -0.3333333   0.7621215   0.3163399  )
         4           Ge  tau(   4) = (   0.3333333   0.1847712   0.3163399  )
         5           Ge  tau(   5) = (   0.1666667   0.2809954   0.2614379  )
         6           Ge  tau(   6) = (   0.1666667   0.4734464   0.3163399  )
         7           Ge  tau(   7) = (   0.0000000   0.5696705   0.2614379  )
         8           Ge  tau(   8) = (   0.0000000   0.7621215   0.3163399  )
         9           Ge  tau(   9) = (  -0.1666667   0.8583457   0.2614379  )
        10           Ge  tau(  10) = (   0.6666667   0.1847712   0.3163399  )
        11           Ge  tau(  11) = (   0.5000000   0.2809954   0.2614379  )
        12           Ge  tau(  12) = (   0.5000000   0.4734464   0.3163399  )
        13           Ge  tau(  13) = (   0.3333333   0.5696705   0.2614379  )
        14           Ge  tau(  14) = (   0.3333333   0.7621215   0.3163399  )
        15           Ge  tau(  15) = (   0.1666667   0.8583457   0.2614379  )
        16           Ge  tau(  16) = (   0.8333333   0.2809954   0.2614379  )
        17           Ge  tau(  17) = (   0.6666667   0.5696705   0.2614379  )
        18           Ge  tau(  18) = (   0.5000000   0.8583457   0.2614379  )
        19           Si  tau(  19) = (   0.0000000   0.1388889   0.0000000  )
        20           Si  tau(  20) = (  -0.1250000   0.3553952   0.0000000  )
        21           Si  tau(  21) = (  -0.2500000   0.5719016   0.0000000  )
        22           Si  tau(  22) = (  -0.3750000   0.7884079   0.0000000  )
        23           Si  tau(  23) = (   0.2500000   0.1388889   0.0000000  )
        24           C   tau(  24) = (   0.1250000   0.2110570   0.0000000  )
        25           Si  tau(  25) = (   0.1250000   0.3553952   0.0000000  )
        26           C   tau(  26) = (   0.0000000   0.4275634   0.0000000  )
        27           Si  tau(  27) = (   0.0000000   0.5719016   0.0000000  )
        28           C   tau(  28) = (  -0.1250000   0.6440697   0.0000000  )
        29           Si  tau(  29) = (  -0.1250000   0.7884079   0.0000000  )
        30           C   tau(  30) = (  -0.2500000   0.8605761   0.0000000  )
        31           Si  tau(  31) = (   0.5000000   0.1388889   0.0000000  )
        32           C   tau(  32) = (   0.3750000   0.2110570   0.0000000  )
        33           Si  tau(  33) = (   0.3750000   0.3553952   0.0000000  )
        34           C   tau(  34) = (   0.2500000   0.4275634   0.0000000  )
        35           Si  tau(  35) = (   0.2500000   0.5719016   0.0000000  )
        36           C   tau(  36) = (   0.1250000   0.6440697   0.0000000  )
        37           Si  tau(  37) = (   0.1250000   0.7884079   0.0000000  )
        38           C   tau(  38) = (   0.0000000   0.8605761   0.0000000  )
        39           Si  tau(  39) = (   0.7500000   0.1388889   0.0000000  )
        40           C   tau(  40) = (   0.6250000   0.2110570   0.0000000  )
        41           Si  tau(  41) = (   0.6250000   0.3553952   0.0000000  )
        42           C   tau(  42) = (   0.5000000   0.4275634   0.0000000  )
        43           Si  tau(  43) = (   0.5000000   0.5719016   0.0000000  )
        44           C   tau(  44) = (   0.3750000   0.6440697   0.0000000  )
        45           Si  tau(  45) = (   0.3750000   0.7884079   0.0000000  )
        46           C   tau(  46) = (   0.2500000   0.8605761   0.0000000  )
        47           C   tau(  47) = (   0.8750000   0.2110570   0.0000000  )
        48           C   tau(  48) = (   0.7500000   0.4275634   0.0000000  )
        49           C   tau(  49) = (   0.6250000   0.6440697   0.0000000  )
        50           C   tau(  50) = (   0.5000000   0.8605761   0.0000000  )

   Crystallographic axes

     site n.     atom                  positions (cryst. coord.)
         1           Ge  tau(   1) = (  0.1066777  0.2133555  0.1936000  )
         2           Ge  tau(   2) = (  0.1066777  0.5466888  0.1936000  )
         3           Ge  tau(   3) = (  0.1066777  0.8800221  0.1936000  )
         4           Ge  tau(   4) = (  0.4400111  0.2133555  0.1936000  )
         5           Ge  tau(   5) = (  0.3288994  0.3244655  0.1600000  )
         6           Ge  tau(   6) = (  0.4400111  0.5466888  0.1936000  )
         7           Ge  tau(   7) = (  0.3288994  0.6577989  0.1600000  )
         8           Ge  tau(   8) = (  0.4400111  0.8800221  0.1936000  )
         9           Ge  tau(   9) = (  0.3288994  0.9911322  0.1600000  )
        10           Ge  tau(  10) = (  0.7733444  0.2133555  0.1936000  )
        11           Ge  tau(  11) = (  0.6622328  0.3244655  0.1600000  )
        12           Ge  tau(  12) = (  0.7733444  0.5466888  0.1936000  )
        13           Ge  tau(  13) = (  0.6622328  0.6577989  0.1600000  )
        14           Ge  tau(  14) = (  0.7733444  0.8800221  0.1936000  )
        15           Ge  tau(  15) = (  0.6622328  0.9911322  0.1600000  )
        16           Ge  tau(  16) = (  0.9955661  0.3244655  0.1600000  )
        17           Ge  tau(  17) = (  0.9955661  0.6577989  0.1600000  )
        18           Ge  tau(  18) = (  0.9955661  0.9911322  0.1600000  )
        19           Si  tau(  19) = (  0.0801875  0.1603751  0.0000000  )
        20           Si  tau(  20) = (  0.0801875  0.4103751  0.0000000  )
        21           Si  tau(  21) = (  0.0801875  0.6603751  0.0000000  )
        22           Si  tau(  22) = (  0.0801875  0.9103751  0.0000000  )
        23           Si  tau(  23) = (  0.3301875  0.1603751  0.0000000  )
        24           C   tau(  24) = (  0.2468538  0.2437076  0.0000000  )
        25           Si  tau(  25) = (  0.3301875  0.4103751  0.0000000  )
        26           C   tau(  26) = (  0.2468538  0.4937076  0.0000000  )
        27           Si  tau(  27) = (  0.3301875  0.6603751  0.0000000  )
        28           C   tau(  28) = (  0.2468538  0.7437076  0.0000000  )
        29           Si  tau(  29) = (  0.3301875  0.9103751  0.0000000  )
        30           C   tau(  30) = (  0.2468538  0.9937076  0.0000000  )
        31           Si  tau(  31) = (  0.5801875  0.1603751  0.0000000  )
        32           C   tau(  32) = (  0.4968538  0.2437076  0.0000000  )
        33           Si  tau(  33) = (  0.5801875  0.4103751  0.0000000  )
        34           C   tau(  34) = (  0.4968538  0.4937076  0.0000000  )
        35           Si  tau(  35) = (  0.5801875  0.6603751  0.0000000  )
        36           C   tau(  36) = (  0.4968538  0.7437076  0.0000000  )
        37           Si  tau(  37) = (  0.5801875  0.9103751  0.0000000  )
        38           C   tau(  38) = (  0.4968538  0.9937076  0.0000000  )
        39           Si  tau(  39) = (  0.8301875  0.1603751  0.0000000  )
        40           C   tau(  40) = (  0.7468538  0.2437076  0.0000000  )
        41           Si  tau(  41) = (  0.8301875  0.4103751  0.0000000  )
        42           C   tau(  42) = (  0.7468538  0.4937076  0.0000000  )
        43           Si  tau(  43) = (  0.8301875  0.6603751  0.0000000  )
        44           C   tau(  44) = (  0.7468538  0.7437076  0.0000000  )
        45           Si  tau(  45) = (  0.8301875  0.9103751  0.0000000  )
        46           C   tau(  46) = (  0.7468538  0.9937076  0.0000000  )
        47           C   tau(  47) = (  0.9968538  0.2437076  0.0000000  )
        48           C   tau(  48) = (  0.9968538  0.4937076  0.0000000  )
        49           C   tau(  49) = (  0.9968538  0.7437076  0.0000000  )
        50           C   tau(  50) = (  0.9968538  0.9937076  0.0000000  )

     number of k points=     4  Methfessel-Paxton smearing, width (Ry)=  0.0060
                       cart. coord. in units 2pi/alat
        k(    1) = (   0.0000000   0.0000000   0.0000000), wk =   0.2222222
        k(    2) = (   0.0000000   0.3849002   0.0000000), wk =   0.4444444
        k(    3) = (   0.3333333   0.5773503   0.0000000), wk =   0.4444444
        k(    4) = (  -0.3333333   0.1924501   0.0000000), wk =   0.8888889

                       cryst. coord.
        k(    1) = (   0.0000000   0.0000000   0.0000000), wk =   0.2222222
        k(    2) = (   0.0000000   0.3333333   0.0000000), wk =   0.4444444
        k(    3) = (   0.3333333   0.3333333   0.0000000), wk =   0.4444444
        k(    4) = (  -0.3333333   0.3333333   0.0000000), wk =   0.8888889

     Initial potential from superposition of free atoms
     Check: negative starting charge=   -0.006732

     starting charge  199.97158, renormalised to  200.00000

     negative rho (up, down):  6.733E-03 0.000E+00
     Starting wfcs are  800 randomized atomic wfcs

     Self-consistent Calculation

     iteration #  1     ecut=    30.00 Ry     beta= 0.70
     Davidson diagonalization with overlap
     ethr =  1.00E-02,  avg # of iterations =  2.0

     negative rho (up, down):  1.409E-03 0.000E+00

     total energy              =    -444.58843699 Ry
     Harris-Foulkes estimate   =    -451.59927395 Ry
     estimated scf accuracy    <      10.39448254 Ry

[...]

     negative rho (up, down):  5.558E-07 0.000E+00

[...]

     total energy              =    -448.67643140 Ry
     Harris-Foulkes estimate   =    -448.67652188 Ry
     estimated scf accuracy    <       0.00023118 Ry

     iteration # 12     ecut=    30.00 Ry     beta= 0.70
     Davidson diagonalization with overlap
     ethr =  1.16E-07,  avg # of iterations =  3.0

     End of self-consistent calculation

          k = 0.0000 0.0000 0.0000 ( 48515 PWs)   bands (ev):

   -15.9263 -14.9348 -14.9145 -14.9143 -14.8786 -14.8785 -14.8592 -13.1848
   -13.1726 -13.1168 -13.1167 -13.1049 -13.1045 -12.8960 -12.8958 -12.8910
   -12.0292 -10.9181 -10.9081 -10.9080 -10.8902 -10.8901 -10.8774  -9.9597
    -9.9595  -9.9568  -9.1489  -9.1465  -9.0580  -9.0580  -8.7174  -8.7170
    -8.7093  -8.7090  -8.6734  -8.6690  -6.9490  -6.9448  -6.9448  -6.9364
    -6.9361  -6.9233  -6.7131  -6.7115  -6.6869  -6.6752  -6.6735  -6.6636
    -6.5465  -6.5150  -6.5149  -6.4881  -6.4880  -6.4774  -6.1817  -5.0128
    -4.9922  -4.9916  -4.9552  -4.9546  -4.9348  -4.8214  -4.8213  -4.8207
    -4.5979  -4.5976  -4.1510  -4.1463  -4.1462  -4.1302  -4.1300  -4.1217
    -3.9522  -3.2587  -3.2533  -3.2360  -3.2359  -3.0280  -3.0271  -2.8705
    -2.8695  -2.8143  -2.8028  -2.8006  -2.6182  -2.6162  -2.6154  -2.5837
    -2.5622  -2.5611  -2.3356  -2.3356  -2.3244  -2.2647  -2.2503  -2.2503
    -1.4027  -1.4026  -0.7330  -0.7324  -0.6294  -0.5999  -0.5952  -0.1465
    -0.1448  -0.1230   0.3502   0.3548   0.4140   0.6134   0.6763   0.6785
     1.0924   1.0966   1.1172   1.2000   1.4618   1.4639   1.5733   1.5821

     occupation numbers
     1.0000   1.0000   1.0000   1.0000   1.0000   1.0000   1.0000   1.0000
     1.0000   1.0000   1.0000   1.0000   1.0000   1.0000   1.0000   1.0000
     1.0000   1.0000   1.0000   1.0000   1.0000   1.0000   1.0000   1.0000
     1.0000   1.0000   1.0000   1.0000   1.0000   1.0000   1.0000   1.0000
     1.0000   1.0000   1.0000   1.0000   1.0000   1.0000   1.0000   1.0000
     1.0000   1.0000   1.0000   1.0000   1.0000   1.0000   1.0000   1.0000
     1.0000   1.0000   1.0000   1.0000   1.0000   1.0000   1.0000   1.0000
     1.0000   1.0000   1.0000   1.0000   1.0000   1.0000   1.0000   1.0000
     1.0000   1.0000   1.0000   1.0000   1.0000   1.0000   1.0000   1.0000
     1.0000   1.0000   1.0000   1.0000   1.0000   1.0000   1.0000   1.0000
     1.0000   1.0000   1.0000   1.0000   1.0000   1.0000   1.0000   1.0000
     1.0000   1.0000   1.0000   1.0000   1.0000   1.0000   1.0000   1.0000
     1.0000   1.0000   0.9667   0.9642   0.1039  -0.0133  -0.0214  -0.0000
    -0.0000  -0.0000  -0.0000  -0.0000  -0.0000  -0.0000  -0.0000  -0.0000
    -0.0000  -0.0000  -0.0000  -0.0000  -0.0000  -0.0000  -0.0000  -0.0000

[...]

          k = 0.3333 0.5774 0.0000 ( 48552 PWs)   bands (ev):

[...]

          k =-0.3333 0.1925 0.0000 ( 48609 PWs)   bands (ev):

   -15.8101 -15.4614 -15.1196 -15.1177 -14.4654 -14.4627 -14.1523 -13.8510
   -13.8488 -13.3458 -13.0908 -13.0794 -12.9640 -12.9542 -12.5341 -12.5340
   -11.8984 -11.5110 -11.1347 -11.1333 -10.4462 -10.4461 -10.2150  -9.8191
    -9.8179  -9.7187  -9.7158  -9.3511  -9.2987  -9.2895  -9.1323  -9.1321
    -8.3286  -8.3281  -8.0738  -8.0170  -8.0137  -7.9984  -7.6213  -7.6201
    -7.2886  -7.2854  -7.2314  -7.2273  -6.4118  -6.4104  -6.1522  -6.1501
    -6.0850  -5.9057  -5.8318  -5.8258  -5.7281  -5.7204  -5.2515  -5.2507
    -5.1806  -5.1676  -5.1468  -4.9912  -4.7398  -4.7061  -4.7045  -4.5396
    -4.5380  -4.4858  -4.2833  -4.2824  -4.2447  -4.2124  -4.2102  -4.1561
    -3.8381  -3.8373  -3.7502  -3.7313  -3.3837  -3.3833  -3.3776  -3.3003
    -3.0512  -3.0267  -2.9029  -2.8761  -2.8607  -2.7791  -2.7729  -2.7014
    -2.4569  -2.4065  -2.4050  -2.2924  -2.2769  -2.1639  -1.8476  -1.8464
    -1.8032  -1.6562  -1.2647  -1.2577  -0.3152  -0.2847  -0.0758  -0.0047
     0.0027   0.5219   0.5654   0.6094   0.6140   0.7677   0.9159   1.0305
     1.1456   1.2539   1.2809   1.2976   1.5334   1.5450   1.6467   1.6796

     occupation numbers
     1.0000   1.0000   1.0000   1.0000   1.0000   1.0000   1.0000   1.0000
     1.0000   1.0000   1.0000   1.0000   1.0000   1.0000   1.0000   1.0000
     1.0000   1.0000   1.0000   1.0000   1.0000   1.0000   1.0000   1.0000
     1.0000   1.0000   1.0000   1.0000   1.0000   1.0000   1.0000   1.0000
     1.0000   1.0000   1.0000   1.0000   1.0000   1.0000   1.0000   1.0000
     1.0000   1.0000   1.0000   1.0000   1.0000   1.0000   1.0000   1.0000
     1.0000   1.0000   1.0000   1.0000   1.0000   1.0000   1.0000   1.0000
     1.0000   1.0000   1.0000   1.0000   1.0000   1.0000   1.0000   1.0000
     1.0000   1.0000   1.0000   1.0000   1.0000   1.0000   1.0000   1.0000
     1.0000   1.0000   1.0000   1.0000   1.0000   1.0000   1.0000   1.0000
     1.0000   1.0000   1.0000   1.0000   1.0000   1.0000   1.0000   1.0000
     1.0000   1.0000   1.0000   1.0000   1.0000   1.0000   1.0000   1.0000
     1.0000   1.0000   1.0000   1.0000  -0.0000  -0.0000  -0.0000  -0.0000
    -0.0000  -0.0000  -0.0000  -0.0000  -0.0000  -0.0000  -0.0000  -0.0000
    -0.0000  -0.0000  -0.0000  -0.0000  -0.0000  -0.0000  -0.0000  -0.0000

     the Fermi energy is    -0.6742 ev

!    total energy              =    -448.67644820 Ry
     Harris-Foulkes estimate   =    -448.67648737 Ry
     estimated scf accuracy    <       0.00004814 Ry

     The total energy is the sum of the following terms:

     one-electron contribution =   -3319.11398200 Ry
     hartree contribution      =    1696.77820313 Ry
     xc contribution           =    -136.02516135 Ry
     ewald contribution        =    1310.23536792 Ry
     Dispersion Correction     =      -0.55094525 Ry
     smearing contrib. (-TS)   =       0.00006936 Ry

     convergence has been achieved in  12 iterations

     Writing output data file Ge+SiC_III__3.2.save/

     General routines

     Parallel routines

   This run was terminated on:  13:18:14  17Apr2020

   JOB DONE.