     Program PWSCF v.6.3 starts on 18Apr2020 at  0:30: 3

     Reading input from /home/nano3/Desktop/RAYID/Ge+SiC/Ge+SiC_III/Ge+SiC_III__3.6.scf.in

     Current dimensions of program PWSCF are:
     Max number of different atomic species (ntypx) = 10
     Max number of k-points (npk) =  40000
     Max angular momentum in pseudopotentials (lmaxx) =  3

     IMPORTANT: XC functional enforced from input :
     Exchange-correlation      = PBE ( 1  4  3  4 0 0)
     Any further DFT definition will be discarded
     Please, verify this is what you really want

               file Ge.pbe-mt_fhi.UPF: wavefunction(s)  4d 4f renormalized
               file C.pbe-mt_fhi.UPF: wavefunction(s)  4f renormalized
               file Si.pbe-mt_fhi.UPF: wavefunction(s)  4f renormalized

     Parameters for Dispersion (Grimme-D2) Correction:
       atom      VdW radius       C_6

        Ge         3.264        593.221
        C          2.744         60.710
        Si         3.243        320.200

     Subspace diagonalization in iterative solution of the eigenvalue problem:
     a serial algorithm will be used

     bravais-lattice index     =            4
     lattice parameter (alat)  =      23.1302  a.u.
     unit-cell volume          =   17511.3678 (a.u.)^3
     number of atoms/cell      =           50
     number of atomic types    =            3
     number of electrons       =       200.00
     number of Kohn-Sham states=          120
     kinetic-energy cutoff     =      30.0000  Ry
     charge density cutoff     =     120.0000  Ry
     convergence threshold     =      1.0E-04
     mixing beta               =       0.7000
     number of iterations used =            8  plain     mixing
     Exchange-correlation      = PBE ( 1  4  3  4 0 0)

     celldm(1)=  23.130248  celldm(2)=   0.000000  celldm(3)=   1.633987
     celldm(4)=   0.000000  celldm(5)=   0.000000  celldm(6)=   0.000000

     crystal axes: (cart. coord. in units of alat)
               a(1) = (   1.000000   0.000000   0.000000 )
               a(2) = (  -0.500000   0.866025   0.000000 )
               a(3) = (   0.000000   0.000000   1.633987 )

     reciprocal axes: (cart. coord. in units 2 pi/alat)
               b(1) = (  1.000000  0.577350 -0.000000 )
               b(2) = (  0.000000  1.154701  0.000000 )
               b(3) = (  0.000000 -0.000000  0.612000 )

     PseudoPot. # 1 for Ge read from file:
     /home/nano3/Desktop/RAYID/qe-6.3/bin/pseudo/Ge.pbe-mt_fhi.UPF
     MD5 check sum: b08ff19c3d362044f6e29226b459d86a
     Pseudo is Norm-conserving, Zval =  4.0
     Generated using FHI98PP, converted with fhi2upf.x v.5.0.2
     Using radial grid of  529 points,  3 beta functions with:
                l(1) =   1
                l(2) =   2
                l(3) =   3

     PseudoPot. # 2 for C  read from file:
     /home/nano3/Desktop/RAYID/qe-6.3/bin/pseudo/C.pbe-mt_fhi.UPF
     MD5 check sum: 058ca341f9d6d5327d9962fd88a91b65
     Pseudo is Norm-conserving, Zval =  4.0
     Generated using FHI98PP, converted with fhi2upf.x v.5.0.2
     Using radial grid of  461 points,  3 beta functions with:
                l(1) =   0
                l(2) =   1
                l(3) =   3

     PseudoPot. # 3 for Si read from file:
     /home/nano3/Desktop/RAYID/qe-6.3/bin/pseudo/Si.pbe-mt_fhi.UPF
     MD5 check sum: 259057c2adf9952f9ced37ae3d9e311d
     Pseudo is Norm-conserving, Zval =  4.0
     Generated using FHI98PP, converted with fhi2upf.x v.5.0.2
     Using radial grid of  495 points,  3 beta functions with:
                l(1) =   0
                l(2) =   1
                l(3) =   3

     atomic species   valence    mass     pseudopotential
        Ge             4.00    72.59000     Ge( 1.00)
        C              4.00    12.01070     C ( 1.00)
        Si             4.00    28.08550     Si( 1.00)

      2 Sym. Ops. (no inversion) found

                                    s                        frac. trans.

      isym =  1     identity

 cryst.   s( 1) = (     1          0          0      )
                  (     0          1          0      )
                  (     0          0          1      )

 cart.    s( 1) = (  1.0000000  0.0000000  0.0000000 )
                  (  0.0000000  1.0000000  0.0000000 )
                  (  0.0000000  0.0000000  1.0000000 )

      isym =  2     inv. 180 deg rotation - cart. axis [1,0,0]

 cryst.   s( 2) = (    -1          0          0      )
                  (     1          1          0      )
                  (     0          0          1      )

 cart.    s( 2) = ( -1.0000000  0.0000000  0.0000000 )
                  (  0.0000000  1.0000000  0.0000000 )
                  (  0.0000000  0.0000000  1.0000000 )

     point group C_s (m)
     there are  2 classes
     the character table:

       E     s
A'     1.00  1.00
A''    1.00 -1.00

     the symmetry operations in each class and the name of the first element:

     E        1
          identity
     s        2
          inv. 180 deg rotation - cart. axis [1,0,0]

   Cartesian axes

     site n.     atom                  positions (alat units)
         1           Ge  tau(   1) = (   0.0000000   0.1847712   0.3490196  )
         2           Ge  tau(   2) = (  -0.1666667   0.4734464   0.3490196  )
         3           Ge  tau(   3) = (  -0.3333333   0.7621215   0.3490196  )
         4           Ge  tau(   4) = (   0.3333333   0.1847712   0.3490196  )
         5           Ge  tau(   5) = (   0.1666667   0.2809954   0.2941176  )
         6           Ge  tau(   6) = (   0.1666667   0.4734464   0.3490196  )
         7           Ge  tau(   7) = (   0.0000000   0.5696705   0.2941176  )
         8           Ge  tau(   8) = (   0.0000000   0.7621215   0.3490196  )
         9           Ge  tau(   9) = (  -0.1666667   0.8583457   0.2941176  )
        10           Ge  tau(  10) = (   0.6666667   0.1847712   0.3490196  )
        11           Ge  tau(  11) = (   0.5000000   0.2809954   0.2941176  )
        12           Ge  tau(  12) = (   0.5000000   0.4734464   0.3490196  )
        13           Ge  tau(  13) = (   0.3333333   0.5696705   0.2941176  )
        14           Ge  tau(  14) = (   0.3333333   0.7621215   0.3490196  )
        15           Ge  tau(  15) = (   0.1666667   0.8583457   0.2941176  )
        16           Ge  tau(  16) = (   0.8333333   0.2809954   0.2941176  )
        17           Ge  tau(  17) = (   0.6666667   0.5696705   0.2941176  )
        18           Ge  tau(  18) = (   0.5000000   0.8583457   0.2941176  )
        19           Si  tau(  19) = (   0.0000000   0.1388889   0.0000000  )
        20           Si  tau(  20) = (  -0.1250000   0.3553952   0.0000000  )
        21           Si  tau(  21) = (  -0.2500000   0.5719016   0.0000000  )
        22           Si  tau(  22) = (  -0.3750000   0.7884079   0.0000000  )
        23           Si  tau(  23) = (   0.2500000   0.1388889   0.0000000  )
        24           C   tau(  24) = (   0.1250000   0.2110570   0.0000000  )
        25           Si  tau(  25) = (   0.1250000   0.3553952   0.0000000  )
        26           C   tau(  26) = (   0.0000000   0.4275634   0.0000000  )
        27           Si  tau(  27) = (   0.0000000   0.5719016   0.0000000  )
        28           C   tau(  28) = (  -0.1250000   0.6440697   0.0000000  )
        29           Si  tau(  29) = (  -0.1250000   0.7884079   0.0000000  )
        30           C   tau(  30) = (  -0.2500000   0.8605761   0.0000000  )
        31           Si  tau(  31) = (   0.5000000   0.1388889   0.0000000  )
        32           C   tau(  32) = (   0.3750000   0.2110570   0.0000000  )
        33           Si  tau(  33) = (   0.3750000   0.3553952   0.0000000  )
        34           C   tau(  34) = (   0.2500000   0.4275634   0.0000000  )
        35           Si  tau(  35) = (   0.2500000   0.5719016   0.0000000  )
        36           C   tau(  36) = (   0.1250000   0.6440697   0.0000000  )
        37           Si  tau(  37) = (   0.1250000   0.7884079   0.0000000  )
        38           C   tau(  38) = (   0.0000000   0.8605761   0.0000000  )
        39           Si  tau(  39) = (   0.7500000   0.1388889   0.0000000  )
        40           C   tau(  40) = (   0.6250000   0.2110570   0.0000000  )
        41           Si  tau(  41) = (   0.6250000   0.3553952   0.0000000  )
        42           C   tau(  42) = (   0.5000000   0.4275634   0.0000000  )
        43           Si  tau(  43) = (   0.5000000   0.5719016   0.0000000  )
        44           C   tau(  44) = (   0.3750000   0.6440697   0.0000000  )
        45           Si  tau(  45) = (   0.3750000   0.7884079   0.0000000  )
        46           C   tau(  46) = (   0.2500000   0.8605761   0.0000000  )
        47           C   tau(  47) = (   0.8750000   0.2110570   0.0000000  )
        48           C   tau(  48) = (   0.7500000   0.4275634   0.0000000  )
        49           C   tau(  49) = (   0.6250000   0.6440697   0.0000000  )
        50           C   tau(  50) = (   0.5000000   0.8605761   0.0000000  )

   Crystallographic axes

     site n.     atom                  positions (cryst. coord.)
         1           Ge  tau(   1) = (  0.1066777  0.2133555  0.2136000  )
         2           Ge  tau(   2) = (  0.1066777  0.5466888  0.2136000  )
         3           Ge  tau(   3) = (  0.1066777  0.8800221  0.2136000  )
         4           Ge  tau(   4) = (  0.4400111  0.2133555  0.2136000  )
         5           Ge  tau(   5) = (  0.3288994  0.3244655  0.1800000  )
         6           Ge  tau(   6) = (  0.4400111  0.5466888  0.2136000  )
         7           Ge  tau(   7) = (  0.3288994  0.6577989  0.1800000  )
         8           Ge  tau(   8) = (  0.4400111  0.8800221  0.2136000  )
         9           Ge  tau(   9) = (  0.3288994  0.9911322  0.1800000  )
        10           Ge  tau(  10) = (  0.7733444  0.2133555  0.2136000  )
        11           Ge  tau(  11) = (  0.6622328  0.3244655  0.1800000  )
        12           Ge  tau(  12) = (  0.7733444  0.5466888  0.2136000  )
        13           Ge  tau(  13) = (  0.6622328  0.6577989  0.1800000  )
        14           Ge  tau(  14) = (  0.7733444  0.8800221  0.2136000  )
        15           Ge  tau(  15) = (  0.6622328  0.9911322  0.1800000  )
        16           Ge  tau(  16) = (  0.9955661  0.3244655  0.1800000  )
        17           Ge  tau(  17) = (  0.9955661  0.6577989  0.1800000  )
        18           Ge  tau(  18) = (  0.9955661  0.9911322  0.1800000  )
        19           Si  tau(  19) = (  0.0801875  0.1603751  0.0000000  )
        20           Si  tau(  20) = (  0.0801875  0.4103751  0.0000000  )
        21           Si  tau(  21) = (  0.0801875  0.6603751  0.0000000  )
        22           Si  tau(  22) = (  0.0801875  0.9103751  0.0000000  )
        23           Si  tau(  23) = (  0.3301875  0.1603751  0.0000000  )
        24           C   tau(  24) = (  0.2468538  0.2437076  0.0000000  )
        25           Si  tau(  25) = (  0.3301875  0.4103751  0.0000000  )
        26           C   tau(  26) = (  0.2468538  0.4937076  0.0000000  )
        27           Si  tau(  27) = (  0.3301875  0.6603751  0.0000000  )
        28           C   tau(  28) = (  0.2468538  0.7437076  0.0000000  )
        29           Si  tau(  29) = (  0.3301875  0.9103751  0.0000000  )
        30           C   tau(  30) = (  0.2468538  0.9937076  0.0000000  )
        31           Si  tau(  31) = (  0.5801875  0.1603751  0.0000000  )
        32           C   tau(  32) = (  0.4968538  0.2437076  0.0000000  )
        33           Si  tau(  33) = (  0.5801875  0.4103751  0.0000000  )
        34           C   tau(  34) = (  0.4968538  0.4937076  0.0000000  )
        35           Si  tau(  35) = (  0.5801875  0.6603751  0.0000000  )
        36           C   tau(  36) = (  0.4968538  0.7437076  0.0000000  )
        37           Si  tau(  37) = (  0.5801875  0.9103751  0.0000000  )
        38           C   tau(  38) = (  0.4968538  0.9937076  0.0000000  )
        39           Si  tau(  39) = (  0.8301875  0.1603751  0.0000000  )
        40           C   tau(  40) = (  0.7468538  0.2437076  0.0000000  )
        41           Si  tau(  41) = (  0.8301875  0.4103751  0.0000000  )
        42           C   tau(  42) = (  0.7468538  0.4937076  0.0000000  )
        43           Si  tau(  43) = (  0.8301875  0.6603751  0.0000000  )
        44           C   tau(  44) = (  0.7468538  0.7437076  0.0000000  )
        45           Si  tau(  45) = (  0.8301875  0.9103751  0.0000000  )
        46           C   tau(  46) = (  0.7468538  0.9937076  0.0000000  )
        47           C   tau(  47) = (  0.9968538  0.2437076  0.0000000  )
        48           C   tau(  48) = (  0.9968538  0.4937076  0.0000000  )
        49           C   tau(  49) = (  0.9968538  0.7437076  0.0000000  )
        50           C   tau(  50) = (  0.9968538  0.9937076  0.0000000  )

     number of k points=     4  Methfessel-Paxton smearing, width (Ry)=  0.0060
                       cart. coord. in units 2pi/alat
        k(    1) = (   0.0000000   0.0000000   0.0000000), wk =   0.2222222
        k(    2) = (   0.0000000   0.3849002   0.0000000), wk =   0.4444444
        k(    3) = (   0.3333333   0.5773503   0.0000000), wk =   0.4444444
        k(    4) = (  -0.3333333   0.1924501   0.0000000), wk =   0.8888889

                       cryst. coord.
        k(    1) = (   0.0000000   0.0000000   0.0000000), wk =   0.2222222
        k(    2) = (   0.0000000   0.3333333   0.0000000), wk =   0.4444444
        k(    3) = (   0.3333333   0.3333333   0.0000000), wk =   0.4444444
        k(    4) = (  -0.3333333   0.3333333   0.0000000), wk =   0.8888889

     Initial potential from superposition of free atoms
     Check: negative starting charge=   -0.006381

     starting charge  199.97158, renormalised to  200.00000

     negative rho (up, down):  6.382E-03 0.000E+00
     Starting wfcs are  800 randomized atomic wfcs

     Self-consistent Calculation

     iteration #  1     ecut=    30.00 Ry     beta= 0.70
     Davidson diagonalization with overlap
     ethr =  1.00E-02,  avg # of iterations =  2.0

     negative rho (up, down):  1.319E-03 0.000E+00

     total energy              =    -444.76394998 Ry
     Harris-Foulkes estimate   =    -451.60128970 Ry
     estimated scf accuracy    <      10.24098340 Ry

[...]

     negative rho (up, down):  3.987E-08 0.000E+00

[...]

     total energy              =    -448.64811216 Ry
     Harris-Foulkes estimate   =    -448.64816003 Ry
     estimated scf accuracy    <       0.00017398 Ry

     iteration # 11     ecut=    30.00 Ry     beta= 0.70
     Davidson diagonalization with overlap
     ethr =  8.70E-08,  avg # of iterations =  2.0

     End of self-consistent calculation

          k = 0.0000 0.0000 0.0000 ( 48515 PWs)   bands (ev):

   -15.7470 -14.7368 -14.7276 -14.7272 -14.7118 -14.7116 -14.7036 -12.9767
   -12.9730 -12.9504 -12.9503 -12.9458 -12.9457 -12.7258 -12.7256 -12.7251
   -12.0526 -10.9293 -10.9242 -10.9233 -10.9178 -10.9174 -10.9137  -9.7842
    -9.7842  -9.7833  -9.1258  -9.1249  -9.0910  -9.0905  -8.5478  -8.5477
    -8.5401  -8.5401  -8.5327  -8.5317  -6.9397  -6.9376  -6.9369  -6.9342
    -6.9335  -6.9316  -6.5401  -6.5399  -6.5246  -6.5244  -6.5241  -6.5219
    -6.3478  -6.3398  -6.3397  -6.3288  -6.3287  -6.3241  -5.8770  -4.7313
    -4.7214  -4.7209  -4.7052  -4.7048  -4.6962  -4.6528  -4.6527  -4.6515
    -4.5771  -4.5769  -4.1984  -3.9769  -3.9748  -3.9748  -3.9673  -3.9673
    -3.9638  -3.0701  -3.0701  -2.9100  -2.9099  -2.7889  -2.7883  -2.7230
    -2.7222  -2.6454  -2.6451  -2.6449  -2.6311  -2.6288  -2.6281  -2.6160
    -2.6038  -2.6032  -2.5201  -2.5197  -2.5175  -2.4227  -2.4183  -2.4183
    -1.4290  -1.4289  -0.8433  -0.8428  -0.7871  -0.7812  -0.6343   0.1143
     0.1149   0.1180   0.3579   0.3592   0.3725   0.7072   0.7277   0.7279
     1.0929   1.0987   1.1005   1.1359   1.3701   1.3711   1.4029   1.6899

     occupation numbers
     1.0000   1.0000   1.0000   1.0000   1.0000   1.0000   1.0000   1.0000
     1.0000   1.0000   1.0000   1.0000   1.0000   1.0000   1.0000   1.0000
     1.0000   1.0000   1.0000   1.0000   1.0000   1.0000   1.0000   1.0000
     1.0000   1.0000   1.0000   1.0000   1.0000   1.0000   1.0000   1.0000
     1.0000   1.0000   1.0000   1.0000   1.0000   1.0000   1.0000   1.0000
     1.0000   1.0000   1.0000   1.0000   1.0000   1.0000   1.0000   1.0000
     1.0000   1.0000   1.0000   1.0000   1.0000   1.0000   1.0000   1.0000
     1.0000   1.0000   1.0000   1.0000   1.0000   1.0000   1.0000   1.0000
     1.0000   1.0000   1.0000   1.0000   1.0000   1.0000   1.0000   1.0000
     1.0000   1.0000   1.0000   1.0000   1.0000   1.0000   1.0000   1.0000
     1.0000   1.0000   1.0000   1.0000   1.0000   1.0000   1.0000   1.0000
     1.0000   1.0000   1.0000   1.0000   1.0000   1.0000   1.0000   1.0000
     1.0000   1.0000   0.7874   0.7833   0.2413   0.1921  -0.0041  -0.0000
    -0.0000  -0.0000  -0.0000  -0.0000  -0.0000  -0.0000  -0.0000  -0.0000
    -0.0000  -0.0000  -0.0000  -0.0000  -0.0000  -0.0000  -0.0000  -0.0000

[...]

          k = 0.3333 0.5774 0.0000 ( 48552 PWs)   bands (ev):

[...]

          k =-0.3333 0.1925 0.0000 ( 48609 PWs)   bands (ev):

   -15.6303 -15.2830 -14.9421 -14.9420 -14.2874 -14.2865 -13.9776 -13.6735
   -13.6727 -13.1723 -12.9078 -12.9050 -12.7906 -12.7889 -12.3633 -12.3630
   -11.9216 -11.5340 -11.1570 -11.1566 -10.4676 -10.4670 -10.2373  -9.8376
    -9.8372  -9.5423  -9.5416  -9.1678  -9.1222  -9.1207  -8.9595  -8.9593
    -8.3563  -8.3561  -8.0618  -7.8557  -7.8480  -7.8472  -7.6362  -7.6360
    -7.1173  -7.1166  -7.0657  -7.0651  -6.3969  -6.3968  -5.9845  -5.9841
    -5.7654  -5.6858  -5.6632  -5.6601  -5.5605  -5.5573  -5.1488  -5.0824
    -5.0824  -4.9334  -4.9333  -4.8241  -4.5705  -4.5376  -4.5365  -4.3897
    -4.3269  -4.2607  -4.2603  -4.2467  -4.2464  -4.0442  -4.0436  -3.9333
    -3.5895  -3.5862  -3.5859  -3.5641  -3.3744  -3.3742  -3.2123  -3.0644
    -2.9449  -2.9425  -2.8869  -2.8717  -2.7359  -2.7340  -2.6513  -2.6488
    -2.5760  -2.5758  -2.5419  -2.1885  -2.1197  -2.1118  -2.0344  -2.0305
    -1.9925  -1.6840  -1.4469  -1.4452  -0.2763  -0.2689  -0.1236   0.1151
     0.1175   0.5490   0.6292   0.7173   0.7223   0.7874   1.0377   1.0768
     1.2275   1.2468   1.2524   1.2701   1.5017   1.5159   1.6106   1.6145

     occupation numbers
     1.0000   1.0000   1.0000   1.0000   1.0000   1.0000   1.0000   1.0000
     1.0000   1.0000   1.0000   1.0000   1.0000   1.0000   1.0000   1.0000
     1.0000   1.0000   1.0000   1.0000   1.0000   1.0000   1.0000   1.0000
     1.0000   1.0000   1.0000   1.0000   1.0000   1.0000   1.0000   1.0000
     1.0000   1.0000   1.0000   1.0000   1.0000   1.0000   1.0000   1.0000
     1.0000   1.0000   1.0000   1.0000   1.0000   1.0000   1.0000   1.0000
     1.0000   1.0000   1.0000   1.0000   1.0000   1.0000   1.0000   1.0000
     1.0000   1.0000   1.0000   1.0000   1.0000   1.0000   1.0000   1.0000
     1.0000   1.0000   1.0000   1.0000   1.0000   1.0000   1.0000   1.0000
     1.0000   1.0000   1.0000   1.0000   1.0000   1.0000   1.0000   1.0000
     1.0000   1.0000   1.0000   1.0000   1.0000   1.0000   1.0000   1.0000
     1.0000   1.0000   1.0000   1.0000   1.0000   1.0000   1.0000   1.0000
     1.0000   1.0000   1.0000   1.0000  -0.0000  -0.0000  -0.0000  -0.0000
    -0.0000  -0.0000  -0.0000  -0.0000  -0.0000  -0.0000  -0.0000  -0.0000
    -0.0000  -0.0000  -0.0000  -0.0000  -0.0000  -0.0000  -0.0000  -0.0000

     the Fermi energy is    -0.8135 ev

!    total energy              =    -448.64806978 Ry
     Harris-Foulkes estimate   =    -448.64813386 Ry
     estimated scf accuracy    <       0.00007220 Ry

     The total energy is the sum of the following terms:

     one-electron contribution =   -3083.76587648 Ry
     hartree contribution      =    1579.50623239 Ry
     xc contribution           =    -135.78021287 Ry
     ewald contribution        =    1191.88442174 Ry
     Dispersion Correction     =      -0.49216029 Ry
     smearing contrib. (-TS)   =      -0.00047428 Ry

     convergence has been achieved in  11 iterations

     Writing output data file Ge+SiC_III__3.6.save/

     General routines

     Parallel routines

   This run was terminated on:   1: 9:46  18Apr2020

   JOB DONE.