     Program PWSCF v.6.3 starts on 16Apr2020 at 21:33:11

     Reading input from /home/nano3/Desktop/RAYID/Ge+SiC/Ge+SiC_III/Ge+SiC_III__3.0.scf.in

     Current dimensions of program PWSCF are:
     Max number of different atomic species (ntypx) = 10
     Max number of k-points (npk) =  40000
     Max angular momentum in pseudopotentials (lmaxx) =  3

     IMPORTANT: XC functional enforced from input :
     Exchange-correlation      = PBE ( 1  4  3  4 0 0)
     Any further DFT definition will be discarded
     Please, verify this is what you really want

               file Ge.pbe-mt_fhi.UPF: wavefunction(s)  4d 4f renormalized
               file C.pbe-mt_fhi.UPF: wavefunction(s)  4f renormalized
               file Si.pbe-mt_fhi.UPF: wavefunction(s)  4f renormalized

     Parameters for Dispersion (Grimme-D2) Correction:
       atom      VdW radius       C_6

        Ge         3.264        593.221
        C          2.744         60.710
        Si         3.243        320.200

     Subspace diagonalization in iterative solution of the eigenvalue problem:
     a serial algorithm will be used

     bravais-lattice index     =            4
     lattice parameter (alat)  =      23.1302  a.u.
     unit-cell volume          =   17511.3678 (a.u.)^3
     number of atoms/cell      =           50
     number of atomic types    =            3
     number of electrons       =       200.00
     number of Kohn-Sham states=          120
     kinetic-energy cutoff     =      30.0000  Ry
     charge density cutoff     =     120.0000  Ry
     convergence threshold     =      1.0E-04
     mixing beta               =       0.7000
     number of iterations used =            8  plain     mixing
     Exchange-correlation      = PBE ( 1  4  3  4 0 0)

     celldm(1)=  23.130248  celldm(2)=   0.000000  celldm(3)=   1.633987
     celldm(4)=   0.000000  celldm(5)=   0.000000  celldm(6)=   0.000000

     crystal axes: (cart. coord. in units of alat)
               a(1) = (   1.000000   0.000000   0.000000 )
               a(2) = (  -0.500000   0.866025   0.000000 )
               a(3) = (   0.000000   0.000000   1.633987 )

     reciprocal axes: (cart. coord. in units 2 pi/alat)
               b(1) = (  1.000000  0.577350 -0.000000 )
               b(2) = (  0.000000  1.154701  0.000000 )
               b(3) = (  0.000000 -0.000000  0.612000 )

     PseudoPot. # 1 for Ge read from file:
     /home/nano3/Desktop/RAYID/qe-6.3/bin/pseudo/Ge.pbe-mt_fhi.UPF
     MD5 check sum: b08ff19c3d362044f6e29226b459d86a
     Pseudo is Norm-conserving, Zval =  4.0
     Generated using FHI98PP, converted with fhi2upf.x v.5.0.2
     Using radial grid of  529 points,  3 beta functions with:
                l(1) =   1
                l(2) =   2
                l(3) =   3

     PseudoPot. # 2 for C  read from file:
     /home/nano3/Desktop/RAYID/qe-6.3/bin/pseudo/C.pbe-mt_fhi.UPF
     MD5 check sum: 058ca341f9d6d5327d9962fd88a91b65
     Pseudo is Norm-conserving, Zval =  4.0
     Generated using FHI98PP, converted with fhi2upf.x v.5.0.2
     Using radial grid of  461 points,  3 beta functions with:
                l(1) =   0
                l(2) =   1
                l(3) =   3

     PseudoPot. # 3 for Si read from file:
     /home/nano3/Desktop/RAYID/qe-6.3/bin/pseudo/Si.pbe-mt_fhi.UPF
     MD5 check sum: 259057c2adf9952f9ced37ae3d9e311d
     Pseudo is Norm-conserving, Zval =  4.0
     Generated using FHI98PP, converted with fhi2upf.x v.5.0.2
     Using radial grid of  495 points,  3 beta functions with:
                l(1) =   0
                l(2) =   1
                l(3) =   3

     atomic species   valence    mass     pseudopotential
        Ge             4.00    72.59000     Ge( 1.00)
        C              4.00    12.01070     C ( 1.00)
        Si             4.00    28.08550     Si( 1.00)

      2 Sym. Ops. (no inversion) found

                                    s                        frac. trans.

      isym =  1     identity

 cryst.   s( 1) = (     1          0          0      )
                  (     0          1          0      )
                  (     0          0          1      )

 cart.    s( 1) = (  1.0000000  0.0000000  0.0000000 )
                  (  0.0000000  1.0000000  0.0000000 )
                  (  0.0000000  0.0000000  1.0000000 )

      isym =  2     inv. 180 deg rotation - cart. axis [1,0,0]

 cryst.   s( 2) = (    -1          0          0      )
                  (     1          1          0      )
                  (     0          0          1      )

 cart.    s( 2) = ( -1.0000000  0.0000000  0.0000000 )
                  (  0.0000000  1.0000000  0.0000000 )
                  (  0.0000000  0.0000000  1.0000000 )

     point group C_s (m)
     there are  2 classes
     the character table:

       E     s
A'     1.00  1.00
A''    1.00 -1.00

     the symmetry operations in each class and the name of the first element:

     E        1
          identity
     s        2
          inv. 180 deg rotation - cart. axis [1,0,0]

   Cartesian axes

     site n.     atom                  positions (alat units)
         1           Ge  tau(   1) = (   0.0000000   0.1847712   0.3000000  )
         2           Ge  tau(   2) = (  -0.1666667   0.4734464   0.3000000  )
         3           Ge  tau(   3) = (  -0.3333333   0.7621215   0.3000000  )
         4           Ge  tau(   4) = (   0.3333333   0.1847712   0.3000000  )
         5           Ge  tau(   5) = (   0.1666667   0.2809954   0.2450980  )
         6           Ge  tau(   6) = (   0.1666667   0.4734464   0.3000000  )
         7           Ge  tau(   7) = (   0.0000000   0.5696705   0.2450980  )
         8           Ge  tau(   8) = (   0.0000000   0.7621215   0.3000000  )
         9           Ge  tau(   9) = (  -0.1666667   0.8583457   0.2450980  )
        10           Ge  tau(  10) = (   0.6666667   0.1847712   0.3000000  )
        11           Ge  tau(  11) = (   0.5000000   0.2809954   0.2450980  )
        12           Ge  tau(  12) = (   0.5000000   0.4734464   0.3000000  )
        13           Ge  tau(  13) = (   0.3333333   0.5696705   0.2450980  )
        14           Ge  tau(  14) = (   0.3333333   0.7621215   0.3000000  )
        15           Ge  tau(  15) = (   0.1666667   0.8583457   0.2450980  )
        16           Ge  tau(  16) = (   0.8333333   0.2809954   0.2450980  )
        17           Ge  tau(  17) = (   0.6666667   0.5696705   0.2450980  )
        18           Ge  tau(  18) = (   0.5000000   0.8583457   0.2450980  )
        19           Si  tau(  19) = (   0.0000000   0.1388889   0.0000000  )
        20           Si  tau(  20) = (  -0.1250000   0.3553952   0.0000000  )
        21           Si  tau(  21) = (  -0.2500000   0.5719016   0.0000000  )
        22           Si  tau(  22) = (  -0.3750000   0.7884079   0.0000000  )
        23           Si  tau(  23) = (   0.2500000   0.1388889   0.0000000  )
        24           C   tau(  24) = (   0.1250000   0.2110570   0.0000000  )
        25           Si  tau(  25) = (   0.1250000   0.3553952   0.0000000  )
        26           C   tau(  26) = (   0.0000000   0.4275634   0.0000000  )
        27           Si  tau(  27) = (   0.0000000   0.5719016   0.0000000  )
        28           C   tau(  28) = (  -0.1250000   0.6440697   0.0000000  )
        29           Si  tau(  29) = (  -0.1250000   0.7884079   0.0000000  )
        30           C   tau(  30) = (  -0.2500000   0.8605761   0.0000000  )
        31           Si  tau(  31) = (   0.5000000   0.1388889   0.0000000  )
        32           C   tau(  32) = (   0.3750000   0.2110570   0.0000000  )
        33           Si  tau(  33) = (   0.3750000   0.3553952   0.0000000  )
        34           C   tau(  34) = (   0.2500000   0.4275634   0.0000000  )
        35           Si  tau(  35) = (   0.2500000   0.5719016   0.0000000  )
        36           C   tau(  36) = (   0.1250000   0.6440697   0.0000000  )
        37           Si  tau(  37) = (   0.1250000   0.7884079   0.0000000  )
        38           C   tau(  38) = (   0.0000000   0.8605761   0.0000000  )
        39           Si  tau(  39) = (   0.7500000   0.1388889   0.0000000  )
        40           C   tau(  40) = (   0.6250000   0.2110570   0.0000000  )
        41           Si  tau(  41) = (   0.6250000   0.3553952   0.0000000  )
        42           C   tau(  42) = (   0.5000000   0.4275634   0.0000000  )
        43           Si  tau(  43) = (   0.5000000   0.5719016   0.0000000  )
        44           C   tau(  44) = (   0.3750000   0.6440697   0.0000000  )
        45           Si  tau(  45) = (   0.3750000   0.7884079   0.0000000  )
        46           C   tau(  46) = (   0.2500000   0.8605761   0.0000000  )
        47           C   tau(  47) = (   0.8750000   0.2110570   0.0000000  )
        48           C   tau(  48) = (   0.7500000   0.4275634   0.0000000  )
        49           C   tau(  49) = (   0.6250000   0.6440697   0.0000000  )
        50           C   tau(  50) = (   0.5000000   0.8605761   0.0000000  )

   Crystallographic axes

     site n.     atom                  positions (cryst. coord.)
         1           Ge  tau(   1) = (  0.1066777  0.2133555  0.1836000  )
         2           Ge  tau(   2) = (  0.1066777  0.5466888  0.1836000  )
         3           Ge  tau(   3) = (  0.1066777  0.8800221  0.1836000  )
         4           Ge  tau(   4) = (  0.4400111  0.2133555  0.1836000  )
         5           Ge  tau(   5) = (  0.3288994  0.3244655  0.1500000  )
         6           Ge  tau(   6) = (  0.4400111  0.5466888  0.1836000  )
         7           Ge  tau(   7) = (  0.3288994  0.6577989  0.1500000  )
         8           Ge  tau(   8) = (  0.4400111  0.8800221  0.1836000  )
         9           Ge  tau(   9) = (  0.3288994  0.9911322  0.1500000  )
        10           Ge  tau(  10) = (  0.7733444  0.2133555  0.1836000  )
        11           Ge  tau(  11) = (  0.6622328  0.3244655  0.1500000  )
        12           Ge  tau(  12) = (  0.7733444  0.5466888  0.1836000  )
        13           Ge  tau(  13) = (  0.6622328  0.6577989  0.1500000  )
        14           Ge  tau(  14) = (  0.7733444  0.8800221  0.1836000  )
        15           Ge  tau(  15) = (  0.6622328  0.9911322  0.1500000  )
        16           Ge  tau(  16) = (  0.9955661  0.3244655  0.1500000  )
        17           Ge  tau(  17) = (  0.9955661  0.6577989  0.1500000  )
        18           Ge  tau(  18) = (  0.9955661  0.9911322  0.1500000  )
        19           Si  tau(  19) = (  0.0801875  0.1603751  0.0000000  )
        20           Si  tau(  20) = (  0.0801875  0.4103751  0.0000000  )
        21           Si  tau(  21) = (  0.0801875  0.6603751  0.0000000  )
        22           Si  tau(  22) = (  0.0801875  0.9103751  0.0000000  )
        23           Si  tau(  23) = (  0.3301875  0.1603751  0.0000000  )
        24           C   tau(  24) = (  0.2468538  0.2437076  0.0000000  )
        25           Si  tau(  25) = (  0.3301875  0.4103751  0.0000000  )
        26           C   tau(  26) = (  0.2468538  0.4937076  0.0000000  )
        27           Si  tau(  27) = (  0.3301875  0.6603751  0.0000000  )
        28           C   tau(  28) = (  0.2468538  0.7437076  0.0000000  )
        29           Si  tau(  29) = (  0.3301875  0.9103751  0.0000000  )
        30           C   tau(  30) = (  0.2468538  0.9937076  0.0000000  )
        31           Si  tau(  31) = (  0.5801875  0.1603751  0.0000000  )
        32           C   tau(  32) = (  0.4968538  0.2437076  0.0000000  )
        33           Si  tau(  33) = (  0.5801875  0.4103751  0.0000000  )
        34           C   tau(  34) = (  0.4968538  0.4937076  0.0000000  )
        35           Si  tau(  35) = (  0.5801875  0.6603751  0.0000000  )
        36           C   tau(  36) = (  0.4968538  0.7437076  0.0000000  )
        37           Si  tau(  37) = (  0.5801875  0.9103751  0.0000000  )
        38           C   tau(  38) = (  0.4968538  0.9937076  0.0000000  )
        39           Si  tau(  39) = (  0.8301875  0.1603751  0.0000000  )
        40           C   tau(  40) = (  0.7468538  0.2437076  0.0000000  )
        41           Si  tau(  41) = (  0.8301875  0.4103751  0.0000000  )
        42           C   tau(  42) = (  0.7468538  0.4937076  0.0000000  )
        43           Si  tau(  43) = (  0.8301875  0.6603751  0.0000000  )
        44           C   tau(  44) = (  0.7468538  0.7437076  0.0000000  )
        45           Si  tau(  45) = (  0.8301875  0.9103751  0.0000000  )
        46           C   tau(  46) = (  0.7468538  0.9937076  0.0000000  )
        47           C   tau(  47) = (  0.9968538  0.2437076  0.0000000  )
        48           C   tau(  48) = (  0.9968538  0.4937076  0.0000000  )
        49           C   tau(  49) = (  0.9968538  0.7437076  0.0000000  )
        50           C   tau(  50) = (  0.9968538  0.9937076  0.0000000  )

     number of k points=     4  Methfessel-Paxton smearing, width (Ry)=  0.0060
                       cart. coord. in units 2pi/alat
        k(    1) = (   0.0000000   0.0000000   0.0000000), wk =   0.2222222
        k(    2) = (   0.0000000   0.3849002   0.0000000), wk =   0.4444444
        k(    3) = (   0.3333333   0.5773503   0.0000000), wk =   0.4444444
        k(    4) = (  -0.3333333   0.1924501   0.0000000), wk =   0.8888889

                       cryst. coord.
        k(    1) = (   0.0000000   0.0000000   0.0000000), wk =   0.2222222
        k(    2) = (   0.0000000   0.3333333   0.0000000), wk =   0.4444444
        k(    3) = (   0.3333333   0.3333333   0.0000000), wk =   0.4444444
        k(    4) = (  -0.3333333   0.3333333   0.0000000), wk =   0.8888889

     Initial potential from superposition of free atoms
     Check: negative starting charge=   -0.006924

     starting charge  199.97158, renormalised to  200.00000

     negative rho (up, down):  6.925E-03 0.000E+00
     Starting wfcs are  800 randomized atomic wfcs

     Self-consistent Calculation

     iteration #  1     ecut=    30.00 Ry     beta= 0.70
     Davidson diagonalization with overlap
     ethr =  1.00E-02,  avg # of iterations =  2.0

     negative rho (up, down):  1.438E-03 0.000E+00

     total energy              =    -444.40434123 Ry
     Harris-Foulkes estimate   =    -451.56230295 Ry
     estimated scf accuracy    <      10.53116527 Ry

[...]

     negative rho (up, down):  1.126E-06 0.000E+00

[...]

     total energy              =    -448.65847766 Ry
     Harris-Foulkes estimate   =    -448.65852273 Ry
     estimated scf accuracy    <       0.00015459 Ry

     iteration # 14     ecut=    30.00 Ry     beta= 0.70
     Davidson diagonalization with overlap
     ethr =  7.73E-08,  avg # of iterations =  2.0

     End of self-consistent calculation

          k = 0.0000 0.0000 0.0000 ( 48515 PWs)   bands (ev):

   -16.0323 -15.0510 -15.0229 -15.0218 -14.9779 -14.9765 -14.9498 -13.3112
   -13.2908 -13.2114 -13.2105 -13.1913 -13.1901 -12.9888 -12.9880 -12.9844
   -12.0385 -10.9391 -10.9258 -10.9256 -10.8957 -10.8950 -10.8811 -10.0628
   -10.0623 -10.0565  -9.2103  -9.2091  -9.0760  -9.0751  -8.8092  -8.8089
    -8.7955  -8.7954  -8.7301  -8.7228  -7.0097  -7.0084  -7.0061  -6.9778
    -6.9767  -6.9498  -6.7941  -6.7902  -6.7796  -6.7372  -6.7332  -6.7185
    -6.6770  -6.6124  -6.6119  -6.5724  -6.5719  -6.5593  -6.3424  -5.1716
    -5.1455  -5.1433  -5.0971  -5.0946  -5.0690  -4.9154  -4.9150  -4.9132
    -4.6509  -4.6502  -4.2434  -4.2395  -4.2393  -4.2169  -4.2169  -4.2071
    -3.7872  -3.4676  -3.4575  -3.3235  -3.3234  -3.1772  -3.1752  -2.9690
    -2.9656  -2.9306  -2.8790  -2.8736  -2.6406  -2.6358  -2.6343  -2.5823
    -2.5489  -2.5463  -2.2120  -2.2108  -2.1971  -2.1311  -2.1078  -2.1073
    -1.4104  -1.4103  -0.6729  -0.6713  -0.6004  -0.5602  -0.4632  -0.3080
    -0.3061  -0.2641   0.3078   0.3141   0.4379   0.5487   0.6184   0.6243
     1.0769   1.0815   1.1259   1.2411   1.4929   1.4958   1.5482   1.5606

     occupation numbers
     1.0000   1.0000   1.0000   1.0000   1.0000   1.0000   1.0000   1.0000
     1.0000   1.0000   1.0000   1.0000   1.0000   1.0000   1.0000   1.0000
     1.0000   1.0000   1.0000   1.0000   1.0000   1.0000   1.0000   1.0000
     1.0000   1.0000   1.0000   1.0000   1.0000   1.0000   1.0000   1.0000
     1.0000   1.0000   1.0000   1.0000   1.0000   1.0000   1.0000   1.0000
     1.0000   1.0000   1.0000   1.0000   1.0000   1.0000   1.0000   1.0000
     1.0000   1.0000   1.0000   1.0000   1.0000   1.0000   1.0000   1.0000
     1.0000   1.0000   1.0000   1.0000   1.0000   1.0000   1.0000   1.0000
     1.0000   1.0000   1.0000   1.0000   1.0000   1.0000   1.0000   1.0000
     1.0000   1.0000   1.0000   1.0000   1.0000   1.0000   1.0000   1.0000
     1.0000   1.0000   1.0000   1.0000   1.0000   1.0000   1.0000   1.0000
     1.0000   1.0000   1.0000   1.0000   1.0000   1.0000   1.0000   1.0000
     1.0000   1.0000   0.8989   0.8892   0.2345   0.0038  -0.0077  -0.0000
    -0.0000  -0.0000  -0.0000  -0.0000  -0.0000  -0.0000  -0.0000  -0.0000
    -0.0000  -0.0000  -0.0000  -0.0000  -0.0000  -0.0000  -0.0000  -0.0000

[...]

          k = 0.3333 0.5774 0.0000 ( 48552 PWs)   bands (ev):

[...]

          k =-0.3333 0.1925 0.0000 ( 48609 PWs)   bands (ev):

   -15.9166 -15.5664 -15.2235 -15.2204 -14.5696 -14.5650 -14.2533 -13.9544
   -13.9507 -13.4440 -13.1975 -13.1779 -13.0599 -13.0458 -12.6281 -12.6277
   -11.9082 -11.5213 -11.1454 -11.1439 -10.4609 -10.4590 -10.2274  -9.8382
    -9.8373  -9.8219  -9.8148  -9.4601  -9.4026  -9.3864  -9.2303  -9.2299
    -8.3357  -8.3350  -8.1540  -8.1089  -8.1024  -8.0346  -7.6438  -7.6421
    -7.3822  -7.3757  -7.3208  -7.3107  -6.4646  -6.4619  -6.2728  -6.2418
    -6.2368  -6.0690  -5.9228  -5.9147  -5.8198  -5.8101  -5.3451  -5.3449
    -5.2906  -5.2893  -5.1513  -5.0788  -4.8333  -4.7996  -4.7960  -4.6976
    -4.6972  -4.5750  -4.3841  -4.3564  -4.3552  -4.3052  -4.2998  -4.0698
    -3.9794  -3.9778  -3.8283  -3.8209  -3.4652  -3.4451  -3.4367  -3.4250
    -3.1680  -3.1352  -2.9954  -2.9629  -2.8898  -2.8060  -2.7955  -2.5714
    -2.4050  -2.3725  -2.3429  -2.2726  -2.2669  -2.1717  -1.7313  -1.7198
    -1.6750  -1.6463  -1.1470  -1.1287  -0.3996  -0.3653  -0.1098  -0.0539
    -0.0423   0.4307   0.5455   0.5668   0.5839   0.7545   0.8373   1.0241
     1.1037   1.2951   1.3031   1.3251   1.5392   1.5585   1.6447   1.7007

     occupation numbers
     1.0000   1.0000   1.0000   1.0000   1.0000   1.0000   1.0000   1.0000
     1.0000   1.0000   1.0000   1.0000   1.0000   1.0000   1.0000   1.0000
     1.0000   1.0000   1.0000   1.0000   1.0000   1.0000   1.0000   1.0000
     1.0000   1.0000   1.0000   1.0000   1.0000   1.0000   1.0000   1.0000
     1.0000   1.0000   1.0000   1.0000   1.0000   1.0000   1.0000   1.0000
     1.0000   1.0000   1.0000   1.0000   1.0000   1.0000   1.0000   1.0000
     1.0000   1.0000   1.0000   1.0000   1.0000   1.0000   1.0000   1.0000
     1.0000   1.0000   1.0000   1.0000   1.0000   1.0000   1.0000   1.0000
     1.0000   1.0000   1.0000   1.0000   1.0000   1.0000   1.0000   1.0000
     1.0000   1.0000   1.0000   1.0000   1.0000   1.0000   1.0000   1.0000
     1.0000   1.0000   1.0000   1.0000   1.0000   1.0000   1.0000   1.0000
     1.0000   1.0000   1.0000   1.0000   1.0000   1.0000   1.0000   1.0000
     1.0000   1.0000   1.0000   1.0000  -0.0003  -0.0000  -0.0000  -0.0000
    -0.0000  -0.0000  -0.0000  -0.0000  -0.0000  -0.0000  -0.0000  -0.0000
    -0.0000  -0.0000  -0.0000  -0.0000  -0.0000  -0.0000  -0.0000  -0.0000

     the Fermi energy is    -0.6276 ev

!    total energy              =    -448.65847009 Ry
     Harris-Foulkes estimate   =    -448.65849695 Ry
     estimated scf accuracy    <       0.00003040 Ry

     The total energy is the sum of the following terms:

     one-electron contribution =   -3442.04798623 Ry
     hartree contribution      =    1757.94749677 Ry
     xc contribution           =    -136.22487833 Ry
     ewald contribution        =    1372.24491545 Ry
     Dispersion Correction     =      -0.57789351 Ry
     smearing contrib. (-TS)   =      -0.00012425 Ry

     convergence has been achieved in  14 iterations

     Writing output data file Ge+SiC_III__3.0.save/

     General routines

     Parallel routines

       7h

   This run was terminated on:  22:40:52  16Apr2020

   JOB DONE.