     Program PWSCF v.6.3 starts on 16Apr2020 at 13: 9:55

     Reading input from /home/nano3/Desktop/RAYID/Ge+SiC/Ge+SiC_III/Ge+SiC_III__2.8.scf.in

     Current dimensions of program PWSCF are:
     Max number of different atomic species (ntypx) = 10
     Max number of k-points (npk) =  40000
     Max angular momentum in pseudopotentials (lmaxx) =  3

     IMPORTANT: XC functional enforced from input :
     Exchange-correlation      = PBE ( 1  4  3  4 0 0)
     Any further DFT definition will be discarded
     Please, verify this is what you really want

               file Ge.pbe-mt_fhi.UPF: wavefunction(s)  4d 4f renormalized
               file C.pbe-mt_fhi.UPF: wavefunction(s)  4f renormalized
               file Si.pbe-mt_fhi.UPF: wavefunction(s)  4f renormalized

     Parameters for Dispersion (Grimme-D2) Correction:
       atom      VdW radius       C_6

        Ge         3.264        593.221
        C          2.744         60.710
        Si         3.243        320.200

     Subspace diagonalization in iterative solution of the eigenvalue problem:
     a serial algorithm will be used

     bravais-lattice index     =            4
     lattice parameter (alat)  =      23.1302  a.u.
     unit-cell volume          =   17511.3678 (a.u.)^3
     number of atoms/cell      =           50
     number of atomic types    =            3
     number of electrons       =       200.00
     number of Kohn-Sham states=          120
     kinetic-energy cutoff     =      30.0000  Ry
     charge density cutoff     =     120.0000  Ry
     convergence threshold     =      1.0E-04
     mixing beta               =       0.7000
     number of iterations used =            8  plain     mixing
     Exchange-correlation      = PBE ( 1  4  3  4 0 0)

     celldm(1)=  23.130248  celldm(2)=   0.000000  celldm(3)=   1.633987
     celldm(4)=   0.000000  celldm(5)=   0.000000  celldm(6)=   0.000000

     crystal axes: (cart. coord. in units of alat)
               a(1) = (   1.000000   0.000000   0.000000 )
               a(2) = (  -0.500000   0.866025   0.000000 )
               a(3) = (   0.000000   0.000000   1.633987 )

     reciprocal axes: (cart. coord. in units 2 pi/alat)
               b(1) = (  1.000000  0.577350 -0.000000 )
               b(2) = (  0.000000  1.154701  0.000000 )
               b(3) = (  0.000000 -0.000000  0.612000 )

     PseudoPot. # 1 for Ge read from file:
     /home/nano3/Desktop/RAYID/qe-6.3/bin/pseudo/Ge.pbe-mt_fhi.UPF
     MD5 check sum: b08ff19c3d362044f6e29226b459d86a
     Pseudo is Norm-conserving, Zval =  4.0
     Generated using FHI98PP, converted with fhi2upf.x v.5.0.2
     Using radial grid of  529 points,  3 beta functions with:
                l(1) =   1
                l(2) =   2
                l(3) =   3

     PseudoPot. # 2 for C  read from file:
     /home/nano3/Desktop/RAYID/qe-6.3/bin/pseudo/C.pbe-mt_fhi.UPF
     MD5 check sum: 058ca341f9d6d5327d9962fd88a91b65
     Pseudo is Norm-conserving, Zval =  4.0
     Generated using FHI98PP, converted with fhi2upf.x v.5.0.2
     Using radial grid of  461 points,  3 beta functions with:
                l(1) =   0
                l(2) =   1
                l(3) =   3

     PseudoPot. # 3 for Si read from file:
     /home/nano3/Desktop/RAYID/qe-6.3/bin/pseudo/Si.pbe-mt_fhi.UPF
     MD5 check sum: 259057c2adf9952f9ced37ae3d9e311d
     Pseudo is Norm-conserving, Zval =  4.0
     Generated using FHI98PP, converted with fhi2upf.x v.5.0.2
     Using radial grid of  495 points,  3 beta functions with:
                l(1) =   0
                l(2) =   1
                l(3) =   3

     atomic species   valence    mass     pseudopotential
        Ge             4.00    72.59000     Ge( 1.00)
        C              4.00    12.01070     C ( 1.00)
        Si             4.00    28.08550     Si( 1.00)

      2 Sym. Ops. (no inversion) found

                                    s                        frac. trans.

      isym =  1     identity

 cryst.   s( 1) = (     1          0          0      )
                  (     0          1          0      )
                  (     0          0          1      )

 cart.    s( 1) = (  1.0000000  0.0000000  0.0000000 )
                  (  0.0000000  1.0000000  0.0000000 )
                  (  0.0000000  0.0000000  1.0000000 )

      isym =  2     inv. 180 deg rotation - cart. axis [1,0,0]

 cryst.   s( 2) = (    -1          0          0      )
                  (     1          1          0      )
                  (     0          0          1      )

 cart.    s( 2) = ( -1.0000000  0.0000000  0.0000000 )
                  (  0.0000000  1.0000000  0.0000000 )
                  (  0.0000000  0.0000000  1.0000000 )

     point group C_s (m)
     there are  2 classes
     the character table:

       E     s
A'     1.00  1.00
A''    1.00 -1.00

     the symmetry operations in each class and the name of the first element:

     E        1
          identity
     s        2
          inv. 180 deg rotation - cart. axis [1,0,0]

   Cartesian axes

     site n.     atom                  positions (alat units)
         1           Ge  tau(   1) = (   0.0000000   0.1847712   0.2836601  )
         2           Ge  tau(   2) = (  -0.1666667   0.4734464   0.2836601  )
         3           Ge  tau(   3) = (  -0.3333333   0.7621215   0.2836601  )
         4           Ge  tau(   4) = (   0.3333333   0.1847712   0.2836601  )
         5           Ge  tau(   5) = (   0.1666667   0.2809954   0.2287582  )
         6           Ge  tau(   6) = (   0.1666667   0.4734464   0.2836601  )
         7           Ge  tau(   7) = (   0.0000000   0.5696705   0.2287582  )
         8           Ge  tau(   8) = (   0.0000000   0.7621215   0.2836601  )
         9           Ge  tau(   9) = (  -0.1666667   0.8583457   0.2287582  )
        10           Ge  tau(  10) = (   0.6666667   0.1847712   0.2836601  )
        11           Ge  tau(  11) = (   0.5000000   0.2809954   0.2287582  )
        12           Ge  tau(  12) = (   0.5000000   0.4734464   0.2836601  )
        13           Ge  tau(  13) = (   0.3333333   0.5696705   0.2287582  )
        14           Ge  tau(  14) = (   0.3333333   0.7621215   0.2836601  )
        15           Ge  tau(  15) = (   0.1666667   0.8583457   0.2287582  )
        16           Ge  tau(  16) = (   0.8333333   0.2809954   0.2287582  )
        17           Ge  tau(  17) = (   0.6666667   0.5696705   0.2287582  )
        18           Ge  tau(  18) = (   0.5000000   0.8583457   0.2287582  )
        19           Si  tau(  19) = (   0.0000000   0.1388889   0.0000000  )
        20           Si  tau(  20) = (  -0.1250000   0.3553952   0.0000000  )
        21           Si  tau(  21) = (  -0.2500000   0.5719016   0.0000000  )
        22           Si  tau(  22) = (  -0.3750000   0.7884079   0.0000000  )
        23           Si  tau(  23) = (   0.2500000   0.1388889   0.0000000  )
        24           C   tau(  24) = (   0.1250000   0.2110570   0.0000000  )
        25           Si  tau(  25) = (   0.1250000   0.3553952   0.0000000  )
        26           C   tau(  26) = (   0.0000000   0.4275634   0.0000000  )
        27           Si  tau(  27) = (   0.0000000   0.5719016   0.0000000  )
        28           C   tau(  28) = (  -0.1250000   0.6440697   0.0000000  )
        29           Si  tau(  29) = (  -0.1250000   0.7884079   0.0000000  )
        30           C   tau(  30) = (  -0.2500000   0.8605761   0.0000000  )
        31           Si  tau(  31) = (   0.5000000   0.1388889   0.0000000  )
        32           C   tau(  32) = (   0.3750000   0.2110570   0.0000000  )
        33           Si  tau(  33) = (   0.3750000   0.3553952   0.0000000  )
        34           C   tau(  34) = (   0.2500000   0.4275634   0.0000000  )
        35           Si  tau(  35) = (   0.2500000   0.5719016   0.0000000  )
        36           C   tau(  36) = (   0.1250000   0.6440697   0.0000000  )
        37           Si  tau(  37) = (   0.1250000   0.7884079   0.0000000  )
        38           C   tau(  38) = (   0.0000000   0.8605761   0.0000000  )
        39           Si  tau(  39) = (   0.7500000   0.1388889   0.0000000  )
        40           C   tau(  40) = (   0.6250000   0.2110570   0.0000000  )
        41           Si  tau(  41) = (   0.6250000   0.3553952   0.0000000  )
        42           C   tau(  42) = (   0.5000000   0.4275634   0.0000000  )
        43           Si  tau(  43) = (   0.5000000   0.5719016   0.0000000  )
        44           C   tau(  44) = (   0.3750000   0.6440697   0.0000000  )
        45           Si  tau(  45) = (   0.3750000   0.7884079   0.0000000  )
        46           C   tau(  46) = (   0.2500000   0.8605761   0.0000000  )
        47           C   tau(  47) = (   0.8750000   0.2110570   0.0000000  )
        48           C   tau(  48) = (   0.7500000   0.4275634   0.0000000  )
        49           C   tau(  49) = (   0.6250000   0.6440697   0.0000000  )
        50           C   tau(  50) = (   0.5000000   0.8605761   0.0000000  )

   Crystallographic axes

     site n.     atom                  positions (cryst. coord.)
         1           Ge  tau(   1) = (  0.1066777  0.2133555  0.1736000  )
         2           Ge  tau(   2) = (  0.1066777  0.5466888  0.1736000  )
         3           Ge  tau(   3) = (  0.1066777  0.8800221  0.1736000  )
         4           Ge  tau(   4) = (  0.4400111  0.2133555  0.1736000  )
         5           Ge  tau(   5) = (  0.3288994  0.3244655  0.1400000  )
         6           Ge  tau(   6) = (  0.4400111  0.5466888  0.1736000  )
         7           Ge  tau(   7) = (  0.3288994  0.6577989  0.1400000  )
         8           Ge  tau(   8) = (  0.4400111  0.8800221  0.1736000  )
         9           Ge  tau(   9) = (  0.3288994  0.9911322  0.1400000  )
        10           Ge  tau(  10) = (  0.7733444  0.2133555  0.1736000  )
        11           Ge  tau(  11) = (  0.6622328  0.3244655  0.1400000  )
        12           Ge  tau(  12) = (  0.7733444  0.5466888  0.1736000  )
        13           Ge  tau(  13) = (  0.6622328  0.6577989  0.1400000  )
        14           Ge  tau(  14) = (  0.7733444  0.8800221  0.1736000  )
        15           Ge  tau(  15) = (  0.6622328  0.9911322  0.1400000  )
        16           Ge  tau(  16) = (  0.9955661  0.3244655  0.1400000  )
        17           Ge  tau(  17) = (  0.9955661  0.6577989  0.1400000  )
        18           Ge  tau(  18) = (  0.9955661  0.9911322  0.1400000  )
        19           Si  tau(  19) = (  0.0801875  0.1603751  0.0000000  )
        20           Si  tau(  20) = (  0.0801875  0.4103751  0.0000000  )
        21           Si  tau(  21) = (  0.0801875  0.6603751  0.0000000  )
        22           Si  tau(  22) = (  0.0801875  0.9103751  0.0000000  )
        23           Si  tau(  23) = (  0.3301875  0.1603751  0.0000000  )
        24           C   tau(  24) = (  0.2468538  0.2437076  0.0000000  )
        25           Si  tau(  25) = (  0.3301875  0.4103751  0.0000000  )
        26           C   tau(  26) = (  0.2468538  0.4937076  0.0000000  )
        27           Si  tau(  27) = (  0.3301875  0.6603751  0.0000000  )
        28           C   tau(  28) = (  0.2468538  0.7437076  0.0000000  )
        29           Si  tau(  29) = (  0.3301875  0.9103751  0.0000000  )
        30           C   tau(  30) = (  0.2468538  0.9937076  0.0000000  )
        31           Si  tau(  31) = (  0.5801875  0.1603751  0.0000000  )
        32           C   tau(  32) = (  0.4968538  0.2437076  0.0000000  )
        33           Si  tau(  33) = (  0.5801875  0.4103751  0.0000000  )
        34           C   tau(  34) = (  0.4968538  0.4937076  0.0000000  )
        35           Si  tau(  35) = (  0.5801875  0.6603751  0.0000000  )
        36           C   tau(  36) = (  0.4968538  0.7437076  0.0000000  )
        37           Si  tau(  37) = (  0.5801875  0.9103751  0.0000000  )
        38           C   tau(  38) = (  0.4968538  0.9937076  0.0000000  )
        39           Si  tau(  39) = (  0.8301875  0.1603751  0.0000000  )
        40           C   tau(  40) = (  0.7468538  0.2437076  0.0000000  )
        41           Si  tau(  41) = (  0.8301875  0.4103751  0.0000000  )
        42           C   tau(  42) = (  0.7468538  0.4937076  0.0000000  )
        43           Si  tau(  43) = (  0.8301875  0.6603751  0.0000000  )
        44           C   tau(  44) = (  0.7468538  0.7437076  0.0000000  )
        45           Si  tau(  45) = (  0.8301875  0.9103751  0.0000000  )
        46           C   tau(  46) = (  0.7468538  0.9937076  0.0000000  )
        47           C   tau(  47) = (  0.9968538  0.2437076  0.0000000  )
        48           C   tau(  48) = (  0.9968538  0.4937076  0.0000000  )
        49           C   tau(  49) = (  0.9968538  0.7437076  0.0000000  )
        50           C   tau(  50) = (  0.9968538  0.9937076  0.0000000  )

     number of k points=     4  Methfessel-Paxton smearing, width (Ry)=  0.0060
                       cart. coord. in units 2pi/alat
        k(    1) = (   0.0000000   0.0000000   0.0000000), wk =   0.2222222
        k(    2) = (   0.0000000   0.3849002   0.0000000), wk =   0.4444444
        k(    3) = (   0.3333333   0.5773503   0.0000000), wk =   0.4444444
        k(    4) = (  -0.3333333   0.1924501   0.0000000), wk =   0.8888889

                       cryst. coord.
        k(    1) = (   0.0000000   0.0000000   0.0000000), wk =   0.2222222
        k(    2) = (   0.0000000   0.3333333   0.0000000), wk =   0.4444444
        k(    3) = (   0.3333333   0.3333333   0.0000000), wk =   0.4444444
        k(    4) = (  -0.3333333   0.3333333   0.0000000), wk =   0.8888889

     Initial potential from superposition of free atoms
     Check: negative starting charge=   -0.007107

     starting charge  199.97158, renormalised to  200.00000

     negative rho (up, down):  7.108E-03 0.000E+00
     Starting wfcs are  800 randomized atomic wfcs

     Self-consistent Calculation

     iteration #  1     ecut=    30.00 Ry     beta= 0.70
     Davidson diagonalization with overlap
     ethr =  1.00E-02,  avg # of iterations =  2.0

     negative rho (up, down):  1.470E-03 0.000E+00

     total energy              =    -444.11968771 Ry
     Harris-Foulkes estimate   =    -451.48731838 Ry
     estimated scf accuracy    <      10.73493053 Ry

[...]

     negative rho (up, down):  2.410E-06 0.000E+00

[...]

     total energy              =    -448.60100546 Ry
     Harris-Foulkes estimate   =    -448.60112050 Ry
     estimated scf accuracy    <       0.00044142 Ry

     iteration # 14     ecut=    30.00 Ry     beta= 0.70
     Davidson diagonalization with overlap
     ethr =  2.21E-07,  avg # of iterations =  2.2

     End of self-consistent calculation

          k = 0.0000 0.0000 0.0000 ( 48515 PWs)   bands (ev):

   -16.1438 -15.1744 -15.1397 -15.1394 -15.0769 -15.0769 -15.0309 -13.4528
   -13.4284 -13.3032 -13.3024 -13.2720 -13.2705 -13.0716 -13.0708 -13.0707
   -12.1091 -11.0201 -11.0115 -11.0113 -10.9626 -10.9618 -10.9509 -10.1649
   -10.1645 -10.1552  -9.3499  -9.3476  -9.1705  -9.1700  -8.9068  -8.9062
    -8.8576  -8.8575  -8.7662  -8.7550  -7.1501  -7.1491  -7.1456  -7.0864
    -7.0852  -7.0365  -6.8688  -6.8641  -6.8598  -6.8440  -6.7817  -6.7783
    -6.7598  -6.7056  -6.7050  -6.6451  -6.6445  -6.6307  -6.4756  -5.3290
    -5.3015  -5.3010  -5.2344  -5.2333  -5.1980  -5.0082  -5.0072  -5.0013
    -4.7769  -4.7750  -4.3338  -4.3243  -4.3241  -4.2928  -4.2923  -4.2797
    -3.6870  -3.6764  -3.6110  -3.4004  -3.4004  -3.3402  -3.3372  -3.0801
    -3.0784  -3.0424  -2.9243  -2.9187  -2.7364  -2.7209  -2.7191  -2.6343
    -2.5729  -2.5680  -2.0937  -2.0923  -2.0709  -1.9872  -1.9513  -1.9494
    -1.4811  -1.4808  -0.6604  -0.6566  -0.6528  -0.5758  -0.4625  -0.4578
    -0.3885  -0.3207   0.2058   0.2131   0.4169   0.4956   0.4982   0.5090
     1.0541   1.0555   1.1149   1.2774   1.5221   1.5265   1.5488   1.5644

     occupation numbers
     1.0000   1.0000   1.0000   1.0000   1.0000   1.0000   1.0000   1.0000
     1.0000   1.0000   1.0000   1.0000   1.0000   1.0000   1.0000   1.0000
     1.0000   1.0000   1.0000   1.0000   1.0000   1.0000   1.0000   1.0000
     1.0000   1.0000   1.0000   1.0000   1.0000   1.0000   1.0000   1.0000
     1.0000   1.0000   1.0000   1.0000   1.0000   1.0000   1.0000   1.0000
     1.0000   1.0000   1.0000   1.0000   1.0000   1.0000   1.0000   1.0000
     1.0000   1.0000   1.0000   1.0000   1.0000   1.0000   1.0000   1.0000
     1.0000   1.0000   1.0000   1.0000   1.0000   1.0000   1.0000   1.0000
     1.0000   1.0000   1.0000   1.0000   1.0000   1.0000   1.0000   1.0000
     1.0000   1.0000   1.0000   1.0000   1.0000   1.0000   1.0000   1.0000
     1.0000   1.0000   1.0000   1.0000   1.0000   1.0000   1.0000   1.0000
     1.0000   1.0000   1.0000   1.0000   1.0000   1.0000   1.0000   1.0000
     1.0000   1.0000   0.4709   0.4322   0.3935  -0.0310  -0.0014  -0.0011
    -0.0000  -0.0000  -0.0000  -0.0000  -0.0000  -0.0000  -0.0000  -0.0000
    -0.0000  -0.0000  -0.0000  -0.0000  -0.0000  -0.0000  -0.0000  -0.0000

[...]

          k = 0.3333 0.5774 0.0000 ( 48552 PWs)   bands (ev):

[...]

          k =-0.3333 0.1925 0.0000 ( 48609 PWs)   bands (ev):

   -16.0290 -15.6762 -15.3331 -15.3225 -14.6764 -14.6721 -14.3554 -14.0603
   -14.0580 -13.5405 -13.3088 -13.2798 -13.1528 -13.1300 -12.7177 -12.7137
   -11.9795 -11.5940 -11.2205 -11.2171 -10.5411 -10.5384 -10.3052  -9.9331
    -9.9295  -9.9190  -9.9119  -9.5753  -9.5103  -9.4788  -9.3242  -9.3220
    -8.4013  -8.3996  -8.2612  -8.1936  -8.1811  -8.1084  -7.7348  -7.7296
    -7.4714  -7.4579  -7.4004  -7.3791  -6.5891  -6.5824  -6.4654  -6.3293
    -6.3159  -6.2590  -6.0058  -5.9956  -5.9038  -5.8906  -5.4393  -5.4367
    -5.4038  -5.3986  -5.1859  -5.1511  -4.9234  -4.8945  -4.8831  -4.8592
    -4.8514  -4.6524  -4.5516  -4.5037  -4.5004  -4.3872  -4.3821  -4.1331
    -4.1325  -4.0076  -3.9018  -3.8715  -3.5845  -3.5674  -3.5453  -3.5416
    -3.2940  -3.2637  -3.1007  -3.0615  -2.9889  -2.8624  -2.8383  -2.4416
    -2.4061  -2.3738  -2.3711  -2.2487  -2.1241  -2.1220  -1.7585  -1.5950
    -1.5538  -1.5450  -1.0379  -0.9984  -0.5346  -0.5056  -0.2310  -0.1015
    -0.0668   0.3131   0.4553   0.5157   0.5706   0.7039   0.7446   1.0034
     1.0830   1.2761   1.3269   1.3845   1.4746   1.5437   1.6485   1.6938

     occupation numbers
     1.0000   1.0000   1.0000   1.0000   1.0000   1.0000   1.0000   1.0000
     1.0000   1.0000   1.0000   1.0000   1.0000   1.0000   1.0000   1.0000
     1.0000   1.0000   1.0000   1.0000   1.0000   1.0000   1.0000   1.0000
     1.0000   1.0000   1.0000   1.0000   1.0000   1.0000   1.0000   1.0000
     1.0000   1.0000   1.0000   1.0000   1.0000   1.0000   1.0000   1.0000
     1.0000   1.0000   1.0000   1.0000   1.0000   1.0000   1.0000   1.0000
     1.0000   1.0000   1.0000   1.0000   1.0000   1.0000   1.0000   1.0000
     1.0000   1.0000   1.0000   1.0000   1.0000   1.0000   1.0000   1.0000
     1.0000   1.0000   1.0000   1.0000   1.0000   1.0000   1.0000   1.0000
     1.0000   1.0000   1.0000   1.0000   1.0000   1.0000   1.0000   1.0000
     1.0000   1.0000   1.0000   1.0000   1.0000   1.0000   1.0000   1.0000
     1.0000   1.0000   1.0000   1.0000   1.0000   1.0000   1.0000   1.0000
     1.0000   1.0000   1.0000   1.0000  -0.0242  -0.0099  -0.0000  -0.0000
    -0.0000  -0.0000  -0.0000  -0.0000  -0.0000  -0.0000  -0.0000  -0.0000
    -0.0000  -0.0000  -0.0000  -0.0000  -0.0000  -0.0000  -0.0000  -0.0000

     the Fermi energy is    -0.6632 ev

!    total energy              =    -448.60103244 Ry
     Harris-Foulkes estimate   =    -448.60105184 Ry
     estimated scf accuracy    <       0.00002179 Ry

     The total energy is the sum of the following terms:

     one-electron contribution =   -3568.43333763 Ry
     hartree contribution      =    1820.79160499 Ry
     xc contribution           =    -136.50163693 Ry
     ewald contribution        =    1436.14384617 Ry
     Dispersion Correction     =      -0.60138789 Ry
     smearing contrib. (-TS)   =      -0.00012115 Ry

     convergence has been achieved in  14 iterations

     Writing output data file Ge+SiC_III__2.8.save/

     General routines

     Parallel routines

       4h

   This run was terminated on:  14:14:30  16Apr2020

   JOB DONE.