     Program PWSCF v.6.8 starts on  8Aug2021 at 13: 4:13

     Waiting for input...
     Reading input from standard input

     Current dimensions of program PWSCF are:
     Max number of different atomic species (ntypx) = 10
     Max number of k-points (npk) =  40000
     Max angular momentum in pseudopotentials (lmaxx) =  4

     IMPORTANT: XC functional enforced from input :
     Exchange-correlation= PBE
                           (   1   4   3   4   0   0   0)
     Any further DFT definition will be discarded
     Please, verify this is what you really want

     DFT-D3 Dispersion Correction (3-body terms):
       Reference C6 values for interpolation:

         atom   Coordination number   C6
         C          0.000            98.23
         C          0.987            86.49
         C          1.998            58.72
         C          2.999            51.56
         C          3.984            36.41
         Si         0.000           635.71
         Si         0.951           540.53
         Si         1.944           466.25
         Si         2.941           443.01
         Si         3.868           299.55
         Ge         0.000           727.09
         Ge         0.943           633.70
         Ge         1.945           573.31
         Ge         2.919           459.90
         Ge         3.897           360.58

       Values used:

         atom   Coordination number  R0_AB[au]  C6      C8
         C          2.992            2.750     51.37   1485.73
         Ge         3.728            3.649    367.55  33852.72
         C          2.992            2.750     51.37   1485.73
         Ge         3.728            3.649    367.55  33852.72
         C          2.992            2.750     51.37   1485.73
         Ge         3.728            3.649    367.55  33852.72
         C          2.992            2.750     51.37   1485.73
         Ge         3.728            3.649    367.55  33852.72
         C          2.946            2.750     51.53   1490.26
         Si         3.353            3.583    380.22  27195.87
         C          2.946            2.750     51.53   1490.26
         Si         3.353            3.583    380.22  27195.87
         C          2.946            2.750     51.53   1490.26
         Si         3.353            3.583    380.22  27195.87
         C          2.946            2.750     51.53   1490.26
         Si         3.353            3.583    380.22  27195.87

         Molecular C6 ( Ry / a.u.^6 ) =     44591.02

     Found symmetry operation: I + ( -0.5000  0.0000  0.0000)
     This is a supercell, fractional translations are disabled

     Using Slab Decomposition

     bravais-lattice index     =            4
     lattice parameter (alat)  =      12.5250  a.u.
     unit-cell volume          =    6418.4032 (a.u.)^3
     number of atoms/cell      =           16
     number of atomic types    =            3
     number of electrons       =        64.00
     number of Kohn-Sham states=           38
     kinetic-energy cutoff     =      40.0000  Ry
     charge density cutoff     =     200.0000  Ry
     scf convergence threshold =      1.0E-06
     mixing beta               =       0.7000
     number of iterations used =            8  plain     mixing
     Exchange-correlation= PBE
                           (   1   4   3   4   0   0   0)

     celldm(1)=  12.525029  celldm(2)=   0.000000  celldm(3)=   3.771900
     celldm(4)=   0.000000  celldm(5)=   0.000000  celldm(6)=   0.000000

     crystal axes: (cart. coord. in units of alat)
               a(1) = (   1.000000   0.000000   0.000000 )
               a(2) = (  -0.500000   0.866025   0.000000 )
               a(3) = (   0.000000   0.000000   3.771900 )

     reciprocal axes: (cart. coord. in units 2 pi/alat)
               b(1) = (  1.000000  0.577350 -0.000000 )
               b(2) = (  0.000000  1.154701  0.000000 )
               b(3) = (  0.000000 -0.000000  0.265118 )

     PseudoPot. # 1 for C  read from file:
     ./pseudo/C.pbe-n-rrkjus_psl.1.0.0.UPF
     MD5 check sum: 1fdd950c42eb37d8afe3dd2f8d12311e
     Pseudo is Ultrasoft + core correction, Zval =  4.0
     Generated using &quot;atomic&quot; code by A. Dal Corso  v.6.3MaX
     Using radial grid of 1073 points,  4 beta functions with:
                l(1) =   0
                l(2) =   0
                l(3) =   1
                l(4) =   1
     Q(r) pseudized with 0 coefficients

     PseudoPot. # 2 for Ge read from file:
     ./pseudo/Ge.pbe-n-rrkjus_psl.1.0.0.UPF
     MD5 check sum: a23a7f3f7456476e534e54484b27d8e8
     Pseudo is Ultrasoft + core correction, Zval =  4.0
     Generated using &quot;atomic&quot; code by A. Dal Corso  v.6.3
     Using radial grid of 1207 points,  4 beta functions with:
                l(1) =   0
                l(2) =   0
                l(3) =   1
                l(4) =   1
     Q(r) pseudized with 0 coefficients

     PseudoPot. # 3 for Si read from file:
     ./pseudo/Si.pbe-n-rrkjus_psl.1.0.0.UPF
     MD5 check sum: fa25574f73a70a4139f2adfbefec430c
     Pseudo is Ultrasoft + core correction, Zval =  4.0
     Generated using &quot;atomic&quot; code by A. Dal Corso  v.6.3
     Using radial grid of 1141 points,  6 beta functions with:
                l(1) =   0
                l(2) =   0
                l(3) =   1
                l(4) =   1
                l(5) =   2
                l(6) =   2
     Q(r) pseudized with 0 coefficients

     atomic species   valence    mass     pseudopotential
        C              4.00    12.01070     C ( 1.00)
        Ge             4.00    72.64000     Ge( 1.00)
        Si             4.00    28.08550     Si( 1.00)

     No symmetry found

                                    s                        frac. trans.

      isym =  1     identity

 cryst.   s( 1) = (     1          0          0      )
                  (     0          1          0      )
                  (     0          0          1      )

 cart.    s( 1) = (  1.0000000  0.0000000  0.0000000 )
                  (  0.0000000  1.0000000  0.0000000 )
                  (  0.0000000  0.0000000  1.0000000 )

     point group C_1 (1)
     there are  1 classes
     the character table:

       E
A      1.00

     the symmetry operations in each class and the name of the first element:

     E        1
          identity

   Cartesian axes

     site n.     atom                  positions (alat units)
         1           C   tau(   1) = (   0.1250000   0.0000000   2.1782408  )
         2           Ge  tau(   2) = (  -0.1250000   0.1443376   2.1782408  )
         3           C   tau(   3) = (   0.6250000   0.0000000   2.1782408  )
         4           Ge  tau(   4) = (   0.3750000   0.1443376   2.1782408  )
         5           C   tau(   5) = (   0.3750000   0.4330127   2.1782408  )
         6           Ge  tau(   6) = (   0.1250000   0.5773503   2.1782408  )
         7           C   tau(   7) = (  -0.1250000   0.4330127   2.1782408  )
         8           Ge  tau(   8) = (  -0.3750000   0.5773503   2.1782408  )
         9           C   tau(   9) = (   0.0000000   0.0000000   1.5087599  )
        10           Si  tau(  10) = (   0.0000000   0.2692204   1.5087599  )
        11           C   tau(  11) = (  -0.2500000   0.4330127   1.5087599  )
        12           Si  tau(  12) = (  -0.2500000   0.7022331   1.5087599  )
        13           C   tau(  13) = (   0.5000000   0.0000000   1.5087599  )
        14           Si  tau(  14) = (   0.5000000   0.2692204   1.5087599  )
        15           C   tau(  15) = (   0.2500000   0.4330127   1.5087599  )
        16           Si  tau(  16) = (   0.2500000   0.7022331   1.5087599  )

   Crystallographic axes

     site n.     atom                  positions (cryst. coord.)
         1           C   tau(   1) = (  0.1250000  0.0000000  0.5774917  )
         2           Ge  tau(   2) = ( -0.0416667  0.1666667  0.5774917  )
         3           C   tau(   3) = (  0.6250000  0.0000000  0.5774917  )
         4           Ge  tau(   4) = (  0.4583333  0.1666667  0.5774917  )
         5           C   tau(   5) = (  0.6250000  0.5000000  0.5774917  )
         6           Ge  tau(   6) = (  0.4583333  0.6666667  0.5774917  )
         7           C   tau(   7) = (  0.1250000  0.5000000  0.5774917  )
         8           Ge  tau(   8) = ( -0.0416667  0.6666667  0.5774917  )
         9           C   tau(   9) = (  0.0000000  0.0000000  0.4000000  )
        10           Si  tau(  10) = (  0.1554345  0.3108690  0.4000000  )
        11           C   tau(  11) = (  0.0000000  0.5000000  0.4000000  )
        12           Si  tau(  12) = (  0.1554345  0.8108690  0.4000000  )
        13           C   tau(  13) = (  0.5000000  0.0000000  0.4000000  )
        14           Si  tau(  14) = (  0.6554345  0.3108690  0.4000000  )
        15           C   tau(  15) = (  0.5000000  0.5000000  0.4000000  )
        16           Si  tau(  16) = (  0.6554345  0.8108690  0.4000000  )

     number of k points=    20  Marzari-Vanderbilt smearing, width (Ry)=  0.0500
                       cart. coord. in units 2pi/alat
        k(    1) = (   0.0000000   0.0000000   0.0000000), wk =   0.0555556
        k(    2) = (   0.0000000   0.1924501   0.0000000), wk =   0.1111111
        k(    3) = (   0.0000000   0.3849002   0.0000000), wk =   0.1111111
        k(    4) = (   0.0000000  -0.5773503   0.0000000), wk =   0.0555556
        k(    5) = (   0.1666667   0.2886751   0.0000000), wk =   0.1111111
        k(    6) = (   0.1666667   0.4811252   0.0000000), wk =   0.1111111
        k(    7) = (   0.3333333   0.5773503   0.0000000), wk =   0.1111111
        k(    8) = (  -0.1666667   0.0962250   0.0000000), wk =   0.1111111
        k(    9) = (   0.1666667   0.0962250   0.0000000), wk =   0.1111111
        k(   10) = (  -0.3333333   0.1924501   0.0000000), wk =   0.1111111
        k(   11) = (   0.3333333   0.1924501   0.0000000), wk =   0.1111111
        k(   12) = (   0.5000000  -0.2886751   0.0000000), wk =   0.0555556
        k(   13) = (  -0.5000000  -0.2886751   0.0000000), wk =   0.0555556
        k(   14) = (  -0.1666667   0.2886751   0.0000000), wk =   0.1111111
        k(   15) = (   0.3333333   0.0000000   0.0000000), wk =   0.1111111
        k(   16) = (  -0.1666667   0.4811252   0.0000000), wk =   0.1111111
        k(   17) = (  -0.3333333   0.3849002   0.0000000), wk =   0.1111111
        k(   18) = (   0.5000000   0.0962250   0.0000000), wk =   0.1111111
        k(   19) = (  -0.3333333  -0.3849002   0.0000000), wk =   0.1111111
        k(   20) = (   0.5000000  -0.0962250   0.0000000), wk =   0.1111111

                       cryst. coord.
        k(    1) = (   0.0000000   0.0000000   0.0000000), wk =   0.0555556
        k(    2) = (   0.0000000   0.1666667   0.0000000), wk =   0.1111111
        k(    3) = (   0.0000000   0.3333333   0.0000000), wk =   0.1111111
        k(    4) = (   0.0000000  -0.5000000   0.0000000), wk =   0.0555556
        k(    5) = (   0.1666667   0.1666667   0.0000000), wk =   0.1111111
        k(    6) = (   0.1666667   0.3333333   0.0000000), wk =   0.1111111
        k(    7) = (   0.3333333   0.3333333   0.0000000), wk =   0.1111111
        k(    8) = (  -0.1666667   0.1666667   0.0000000), wk =   0.1111111
        k(    9) = (   0.1666667   0.0000000   0.0000000), wk =   0.1111111
        k(   10) = (  -0.3333333   0.3333333   0.0000000), wk =   0.1111111
        k(   11) = (   0.3333333   0.0000000   0.0000000), wk =   0.1111111
        k(   12) = (   0.5000000  -0.5000000   0.0000000), wk =   0.0555556
        k(   13) = (  -0.5000000   0.0000000   0.0000000), wk =   0.0555556
        k(   14) = (  -0.1666667   0.3333333   0.0000000), wk =   0.1111111
        k(   15) = (   0.3333333  -0.1666667   0.0000000), wk =   0.1111111
        k(   16) = (  -0.1666667   0.5000000   0.0000000), wk =   0.1111111
        k(   17) = (  -0.3333333   0.5000000   0.0000000), wk =   0.1111111
        k(   18) = (   0.5000000  -0.1666667   0.0000000), wk =   0.1111111
        k(   19) = (  -0.3333333  -0.1666667   0.0000000), wk =   0.1111111
        k(   20) = (   0.5000000  -0.3333333   0.0000000), wk =   0.1111111

     Check: negative core charge=   -0.000010

     Initial potential from superposition of free atoms

     starting charge   63.99436, renormalised to   64.00000

     negative rho (up, down):  4.567E-04 0.000E+00
     Starting wfcs are   64 randomized atomic wfcs

     Self-consistent Calculation

     iteration #  1     ecut=    40.00 Ry     beta= 0.70
     Davidson diagonalization with overlap

     ethr =  1.00E-02,  avg # of iterations =  2.1

     negative rho (up, down):  6.785E-04 0.000E+00

     WARNING: integrated charge=    64.00098524, expected=    64.00000000

     total energy              =    -189.43936524 Ry
     estimated scf accuracy    <       4.39451812 Ry

[...]

     ethr =  6.87E-03,  avg # of iterations =  2.0
     Minimization algorithm failed to find Fermi energy: reverting to bisection
     Possible cause: smearing is larger than the electronic band-gap.

[...]

     ethr =  1.43E-04,  avg # of iterations = 10.6

[...]

     WARNING: integrated charge=    64.00001353, expected=    64.00000000

[...]

     c_bands:  1 eigenvalues not converged
     c_bands:  1 eigenvalues not converged
     ethr =  1.15E-06,  avg # of iterations = 13.0
     Minimization algorithm failed to find Fermi energy: reverting to bisection
     Possible cause: smearing is larger than the electronic band-gap.

[...]

     total energy              =    -191.37298675 Ry
     estimated scf accuracy    <       0.00000353 Ry

     iteration # 13     ecut=    40.00 Ry     beta= 0.70
     Davidson diagonalization with overlap

     ethr =  5.52E-09,  avg # of iterations =  1.6
     Minimization algorithm failed to find Fermi energy: reverting to bisection
     Possible cause: smearing is larger than the electronic band-gap.

     negative rho (up, down):  7.354E-04 0.000E+00

     End of self-consistent calculation

          k = 0.0000 0.0000 0.0000 ( 27479 PWs)   bands (ev):

   -16.0125 -15.2575 -13.2237 -13.2231 -13.2227 -12.9543 -12.9536 -12.6785
   -10.7745 -10.7727 -10.7725 -10.3318  -9.6464  -9.6459  -5.9571  -5.4176
    -5.4171  -5.4163  -5.4145  -5.3929  -5.3924  -4.9280  -4.4788  -3.6331
    -3.6329  -3.3325  -3.2465  -3.1441  -3.0714  -3.0217  -2.9015  -2.7133
    -0.7574  -0.3424  -0.2324  -0.2070   0.1227   0.1992

     occupation numbers
     1.0000   1.0000   1.0000   1.0000   1.0000   1.0000   1.0000   1.0000
     1.0000   1.0000   1.0000   1.0000   1.0000   1.0000   1.0000   1.0000
     1.0000   1.0000   1.0000   1.0000   1.0000   1.0000   1.0003   1.0332
     1.0333   1.0725   1.0805   1.0830   1.0776   1.0696   1.0327   0.9190
     0.0002   0.0000   0.0000   0.0000   0.0000   0.0000

[...]

          k =-0.1667 0.0962 0.0000 ( 27436 PWs)   bands (ev):

[...]

          k =-0.3333-0.3849 0.0000 ( 27414 PWs)   bands (ev):

[...]

          k = 0.5000-0.0962 0.0000 ( 27414 PWs)   bands (ev):

   -15.2932 -14.6991 -14.6107 -14.1310 -14.0693 -13.5634 -12.8056 -12.4871
   -10.5748  -9.8040  -9.0093  -8.4872  -8.1719  -7.6970  -7.4266  -6.8964
    -6.6930  -6.1676  -6.0907  -5.8465  -5.2292  -5.2119  -5.1198  -5.0861
    -4.7232  -4.7034  -4.5962  -4.1513  -4.0230  -3.6033  -2.6950  -2.4281
    -0.4600  -0.0442   0.9471   0.9687   1.0978   1.2391

     occupation numbers
     1.0000   1.0000   1.0000   1.0000   1.0000   1.0000   1.0000   1.0000
     1.0000   1.0000   1.0000   1.0000   1.0000   1.0000   1.0000   1.0000
     1.0000   1.0000   1.0000   1.0000   1.0000   1.0000   1.0000   1.0000
     1.0000   1.0000   1.0001   1.0027   1.0057   1.0368   0.9044   0.6388
     0.0000   0.0000   0.0000   0.0000   0.0000   0.0000

     the Fermi energy is    -2.2074 ev

!    total energy              =    -191.37298623 Ry
     estimated scf accuracy    <       0.00000094 Ry
     smearing contrib. (-TS)   =       0.04149187 Ry
     internal energy E=F+TS    =    -191.41447811 Ry

     The total energy is F=E-TS. E is the sum of the following terms:
     one-electron contribution =   -1440.86761792 Ry
     hartree contribution      =     732.90935558 Ry
     xc contribution           =     -86.60592136 Ry
     ewald contribution        =     603.22357851 Ry
     DFT-D3 Dispersion         =      -0.07387292 Ry

     convergence has been achieved in  13 iterations

     Writing output data file ./work/sic_gec+22.save/

     General routines

   This run was terminated on:  13:31:32   8Aug2021

   JOB DONE.