     Program PWSCF v.6.8 starts on  8Aug2021 at 19:19: 9

     Waiting for input...
     Reading input from standard input

     Current dimensions of program PWSCF are:
     Max number of different atomic species (ntypx) = 10
     Max number of k-points (npk) =  40000
     Max angular momentum in pseudopotentials (lmaxx) =  4

     IMPORTANT: XC functional enforced from input :
     Exchange-correlation= PBE
                           (   1   4   3   4   0   0   0)
     Any further DFT definition will be discarded
     Please, verify this is what you really want

     DFT-D3 Dispersion Correction (3-body terms):
       Reference C6 values for interpolation:

         atom   Coordination number   C6
         C          0.000            98.23
         C          0.987            86.49
         C          1.998            58.72
         C          2.999            51.56
         C          3.984            36.41
         Si         0.000           635.71
         Si         0.951           540.53
         Si         1.944           466.25
         Si         2.941           443.01
         Si         3.868           299.55
         Ge         0.000           727.09
         Ge         0.943           633.70
         Ge         1.945           573.31
         Ge         2.919           459.90
         Ge         3.897           360.58

       Values used:

         atom   Coordination number  R0_AB[au]  C6      C8
         C          3.021            2.750     51.27   1482.68
         Ge         4.209            3.649    360.75  33226.45
         C          3.021            2.750     51.27   1482.68
         Ge         4.209            3.649    360.75  33226.45
         C          3.021            2.750     51.27   1482.68
         Ge         4.209            3.649    360.75  33226.45
         C          3.021            2.750     51.27   1482.68
         Ge         4.209            3.649    360.75  33226.45
         C          3.005            2.750     51.32   1484.39
         Si         3.675            3.583    314.63  22504.58
         C          3.005            2.750     51.32   1484.39
         Si         3.675            3.583    314.63  22504.58
         C          3.005            2.750     51.32   1484.39
         Si         3.675            3.583    314.63  22504.58
         C          3.005            2.750     51.32   1484.39
         Si         3.675            3.583    314.63  22504.58

         Molecular C6 ( Ry / a.u.^6 ) =     41472.77

     Found symmetry operation: I + ( -0.0000  0.5000  0.0000)
     This is a supercell, fractional translations are disabled

     Using Slab Decomposition

     bravais-lattice index     =            4
     lattice parameter (alat)  =      12.0339  a.u.
     unit-cell volume          =    5924.8697 (a.u.)^3
     number of atoms/cell      =           16
     number of atomic types    =            3
     number of electrons       =        64.00
     number of Kohn-Sham states=           38
     kinetic-energy cutoff     =      40.0000  Ry
     charge density cutoff     =     200.0000  Ry
     scf convergence threshold =      1.0E-06
     mixing beta               =       0.7000
     number of iterations used =            8  plain     mixing
     Exchange-correlation= PBE
                           (   1   4   3   4   0   0   0)

     celldm(1)=  12.033852  celldm(2)=   0.000000  celldm(3)=   3.925855
     celldm(4)=   0.000000  celldm(5)=   0.000000  celldm(6)=   0.000000

     crystal axes: (cart. coord. in units of alat)
               a(1) = (   1.000000   0.000000   0.000000 )
               a(2) = (  -0.500000   0.866025   0.000000 )
               a(3) = (   0.000000   0.000000   3.925855 )

     reciprocal axes: (cart. coord. in units 2 pi/alat)
               b(1) = (  1.000000  0.577350 -0.000000 )
               b(2) = (  0.000000  1.154701  0.000000 )
               b(3) = (  0.000000 -0.000000  0.254722 )

     PseudoPot. # 1 for C  read from file:
     ./pseudo/C.pbe-n-rrkjus_psl.1.0.0.UPF
     MD5 check sum: 1fdd950c42eb37d8afe3dd2f8d12311e
     Pseudo is Ultrasoft + core correction, Zval =  4.0
     Generated using &quot;atomic&quot; code by A. Dal Corso  v.6.3MaX
     Using radial grid of 1073 points,  4 beta functions with:
                l(1) =   0
                l(2) =   0
                l(3) =   1
                l(4) =   1
     Q(r) pseudized with 0 coefficients

     PseudoPot. # 2 for Ge read from file:
     ./pseudo/Ge.pbe-n-kjpaw_psl.1.0.0.UPF
     MD5 check sum: 86cd6a1ce4ead6fa7a4673d64b86017a
     Pseudo is Projector augmented-wave + core cor, Zval =  4.0
     Generated using &quot;atomic&quot; code by A. Dal Corso  v.6.3
     Shape of augmentation charge: PSQ
     Using radial grid of 1207 points,  4 beta functions with:
                l(1) =   0
                l(2) =   0
                l(3) =   1
                l(4) =   1
     Q(r) pseudized with 0 coefficients

     PseudoPot. # 3 for Si read from file:
     ./pseudo/Si.pbe-n-rrkjus_psl.1.0.0.UPF
     MD5 check sum: fa25574f73a70a4139f2adfbefec430c
     Pseudo is Ultrasoft + core correction, Zval =  4.0
     Generated using &quot;atomic&quot; code by A. Dal Corso  v.6.3
     Using radial grid of 1141 points,  6 beta functions with:
                l(1) =   0
                l(2) =   0
                l(3) =   1
                l(4) =   1
                l(5) =   2
                l(6) =   2
     Q(r) pseudized with 0 coefficients

     atomic species   valence    mass     pseudopotential
        C              4.00    12.01070     C ( 1.00)
        Ge             4.00    72.64000     Ge( 1.00)
        Si             4.00    28.08550     Si( 1.00)

      2 Sym. Ops. (no inversion) found

                                    s                        frac. trans.

      isym =  1     identity

 cryst.   s( 1) = (     1          0          0      )
                  (     0          1          0      )
                  (     0          0          1      )

 cart.    s( 1) = (  1.0000000  0.0000000  0.0000000 )
                  (  0.0000000  1.0000000  0.0000000 )
                  (  0.0000000  0.0000000  1.0000000 )

      isym =  2     inv. 180 deg rotation - cart. axis [1,0,0]

 cryst.   s( 2) = (    -1          0          0      )
                  (     1          1          0      )
                  (     0          0          1      )

 cart.    s( 2) = ( -1.0000000  0.0000000  0.0000000 )
                  (  0.0000000  1.0000000  0.0000000 )
                  (  0.0000000  0.0000000  1.0000000 )

     point group C_s (m)
     there are  2 classes
     the character table:

       E     s
A'     1.00  1.00
A''    1.00 -1.00

     the symmetry operations in each class and the name of the first element:

     E        1
          identity
     s        2
          inv. 180 deg rotation - cart. axis [1,0,0]

   Cartesian axes

     site n.     atom                  positions (alat units)
         1           C   tau(   1) = (  -0.0000001   0.2802090   2.2588036  )
         2           Ge  tau(   2) = (  -0.0000001  -0.0000000   2.2588036  )
         3           C   tau(   3) = (  -0.2500001   0.7132217   2.2588036  )
         4           Ge  tau(   4) = (  -0.2500001   0.4330127   2.2588036  )
         5           C   tau(   5) = (   0.4999999   0.2802090   2.2588036  )
         6           Ge  tau(   6) = (   0.4999999  -0.0000000   2.2588036  )
         7           C   tau(   7) = (   0.2499999   0.7132217   2.2588036  )
         8           Ge  tau(   8) = (   0.2499999   0.4330127   2.2588036  )
         9           C   tau(   9) = (   0.5000000   0.0000000   1.5703419  )
        10           Si  tau(  10) = (   0.5000000   0.2802090   1.5703419  )
        11           C   tau(  11) = (  -0.2500000   0.4330127   1.5703419  )
        12           Si  tau(  12) = (  -0.2500000   0.7132217   1.5703419  )
        13           C   tau(  13) = (   0.0000000   0.0000000   1.5703419  )
        14           Si  tau(  14) = (   0.0000000   0.2802090   1.5703419  )
        15           C   tau(  15) = (   0.2500000   0.4330127   1.5703419  )
        16           Si  tau(  16) = (   0.2500000   0.7132217   1.5703419  )

   Crystallographic axes

     site n.     atom                  positions (cryst. coord.)
         1           C   tau(   1) = (  0.1617787  0.3235575  0.5753661  )
         2           Ge  tau(   2) = ( -0.0000001 -0.0000000  0.5753661  )
         3           C   tau(   3) = (  0.1617787  0.8235575  0.5753661  )
         4           Ge  tau(   4) = ( -0.0000001  0.5000000  0.5753661  )
         5           C   tau(   5) = (  0.6617787  0.3235575  0.5753661  )
         6           Ge  tau(   6) = (  0.4999999 -0.0000000  0.5753661  )
         7           C   tau(   7) = (  0.6617787  0.8235575  0.5753661  )
         8           Ge  tau(   8) = (  0.4999999  0.5000000  0.5753661  )
         9           C   tau(   9) = (  0.5000000  0.0000000  0.4000000  )
        10           Si  tau(  10) = (  0.6617788  0.3235575  0.4000000  )
        11           C   tau(  11) = ( -0.0000000  0.5000000  0.4000000  )
        12           Si  tau(  12) = (  0.1617788  0.8235575  0.4000000  )
        13           C   tau(  13) = (  0.0000000  0.0000000  0.4000000  )
        14           Si  tau(  14) = (  0.1617788  0.3235575  0.4000000  )
        15           C   tau(  15) = (  0.5000000  0.5000000  0.4000000  )
        16           Si  tau(  16) = (  0.6617788  0.8235575  0.4000000  )

     number of k points=    13  Marzari-Vanderbilt smearing, width (Ry)=  0.0500
                       cart. coord. in units 2pi/alat
        k(    1) = (   0.0000000   0.0000000   0.0000000), wk =   0.0555556
        k(    2) = (   0.0000000   0.1924501   0.0000000), wk =   0.1111111
        k(    3) = (   0.0000000   0.3849002   0.0000000), wk =   0.1111111
        k(    4) = (   0.0000000  -0.5773503   0.0000000), wk =   0.0555556
        k(    5) = (   0.1666667   0.2886751   0.0000000), wk =   0.2222222
        k(    6) = (   0.1666667   0.4811252   0.0000000), wk =   0.2222222
        k(    7) = (   0.3333333   0.5773503   0.0000000), wk =   0.1111111
        k(    8) = (  -0.1666667   0.0962250   0.0000000), wk =   0.2222222
        k(    9) = (  -0.3333333   0.1924501   0.0000000), wk =   0.2222222
        k(   10) = (   0.5000000  -0.2886751   0.0000000), wk =   0.1111111
        k(   11) = (   0.3333333   0.0000000   0.0000000), wk =   0.1111111
        k(   12) = (  -0.3333333   0.3849002   0.0000000), wk =   0.2222222
        k(   13) = (   0.5000000   0.0962250   0.0000000), wk =   0.2222222

                       cryst. coord.
        k(    1) = (   0.0000000   0.0000000   0.0000000), wk =   0.0555556
        k(    2) = (   0.0000000   0.1666667   0.0000000), wk =   0.1111111
        k(    3) = (   0.0000000   0.3333333   0.0000000), wk =   0.1111111
        k(    4) = (   0.0000000  -0.5000000   0.0000000), wk =   0.0555556
        k(    5) = (   0.1666667   0.1666667   0.0000000), wk =   0.2222222
        k(    6) = (   0.1666667   0.3333333   0.0000000), wk =   0.2222222
        k(    7) = (   0.3333333   0.3333333   0.0000000), wk =   0.1111111
        k(    8) = (  -0.1666667   0.1666667   0.0000000), wk =   0.2222222
        k(    9) = (  -0.3333333   0.3333333   0.0000000), wk =   0.2222222
        k(   10) = (   0.5000000  -0.5000000   0.0000000), wk =   0.1111111
        k(   11) = (   0.3333333  -0.1666667   0.0000000), wk =   0.1111111
        k(   12) = (  -0.3333333   0.5000000   0.0000000), wk =   0.2222222
        k(   13) = (   0.5000000  -0.1666667   0.0000000), wk =   0.2222222

     Check: negative core charge=   -0.000010

     Initial potential from superposition of free atoms

     starting charge   63.99436, renormalised to   64.00000

     negative rho (up, down):  4.430E-04 0.000E+00
     Starting wfcs are   64 randomized atomic wfcs

     Self-consistent Calculation

     iteration #  1     ecut=    40.00 Ry     beta= 0.70
     Davidson diagonalization with overlap

     ethr =  1.00E-02,  avg # of iterations =  2.7

     negative rho (up, down):  7.305E-04 0.000E+00

     WARNING: integrated charge=    64.00001362, expected=    64.00000000

     total energy              =    -798.77171472 Ry
     estimated scf accuracy    <       4.88367501 Ry

[...]

     ethr =  7.63E-03,  avg # of iterations =  2.8

[...]

     WARNING: integrated charge=    64.00000862, expected=    64.00000000

[...]

     ethr =  6.32E-03,  avg # of iterations =  2.0
     Minimization algorithm failed to find Fermi energy: reverting to bisection
     Possible cause: smearing is larger than the electronic band-gap.

[...]

     c_bands:  2 eigenvalues not converged
     ethr =  3.56E-05,  avg # of iterations = 10.2
     Minimization algorithm failed to find Fermi energy: reverting to bisection
     Possible cause: smearing is larger than the electronic band-gap.

[...]

     total energy              =    -800.82968361 Ry
     estimated scf accuracy    <       0.00001575 Ry

     iteration # 11     ecut=    40.00 Ry     beta= 0.70
     Davidson diagonalization with overlap

     ethr =  2.46E-08,  avg # of iterations =  4.0
     Minimization algorithm failed to find Fermi energy: reverting to bisection
     Possible cause: smearing is larger than the electronic band-gap.

     negative rho (up, down):  8.021E-04 0.000E+00

     End of self-consistent calculation

          k = 0.0000 0.0000 0.0000 ( 25259 PWs)   bands (ev):

   -16.3439 -15.5234 -13.2886 -13.2879 -13.0936 -12.8410 -12.8410 -12.7297
   -11.0597 -10.6495 -10.6493 -10.1008  -9.8150  -9.8150  -6.1090  -5.5369
    -5.2550  -5.2547  -5.1425  -5.1424  -5.0509  -4.9094  -3.8651  -3.4806
    -3.3572  -3.0646  -3.0643  -2.8936  -2.8761  -2.7571  -2.7568  -2.5972
    -0.0995   0.1791   0.1794   0.2500   0.4807   0.6235

     occupation numbers
     1.0000   1.0000   1.0000   1.0000   1.0000   1.0000   1.0000   1.0000
     1.0000   1.0000   1.0000   1.0000   1.0000   1.0000   1.0000   1.0000
     1.0000   1.0000   1.0000   1.0000   1.0000   1.0000   1.0045   1.0280
     1.0426   1.0792   1.0792   1.0800   1.0782   1.0531   1.0530   0.9783
     0.0000   0.0000   0.0000   0.0000   0.0000   0.0000

[...]

          k =-0.1667 0.0962 0.0000 ( 25283 PWs)   bands (ev):

[...]

          k =-0.3333 0.3849 0.0000 ( 25336 PWs)   bands (ev):

[...]

          k = 0.5000 0.0962 0.0000 ( 25336 PWs)   bands (ev):

   -15.5614 -14.9035 -14.7947 -14.2690 -14.1959 -13.6350 -12.7242 -12.4330
   -10.5722  -9.5458  -8.7839  -8.2280  -7.8605  -7.4675  -7.3950  -7.0849
    -6.0847  -6.0054  -5.9645  -5.8322  -5.2898  -4.9882  -4.9631  -4.7665
    -4.6811  -4.6113  -4.6047  -4.1290  -3.9675  -3.5294  -2.4777  -2.2541
     0.1826   0.3377   1.5800   1.6862   1.8774   1.9156

     occupation numbers
     1.0000   1.0000   1.0000   1.0000   1.0000   1.0000   1.0000   1.0000
     1.0000   1.0000   1.0000   1.0000   1.0000   1.0000   1.0000   1.0000
     1.0000   1.0000   1.0000   1.0000   1.0000   1.0000   1.0000   1.0000
     1.0000   1.0000   1.0000   1.0009   1.0025   1.0231   0.8900   0.6674
     0.0000   0.0000   0.0000   0.0000   0.0000   0.0000

     the Fermi energy is    -2.0074 ev

!    total energy              =    -800.82968887 Ry
     estimated scf accuracy    <       0.00000088 Ry
     smearing contrib. (-TS)   =       0.03957214 Ry
     internal energy E=F+TS    =    -800.86926101 Ry

     The total energy is F=E-TS. E is the sum of the following terms:
     one-electron contribution =   -1572.39150595 Ry
     hartree contribution      =     800.49177360 Ry
     xc contribution           =     -87.79363057 Ry
     ewald contribution        =     670.00022156 Ry
     DFT-D3 Dispersion         =      -0.07606521 Ry
     one-center paw contrib.   =    -611.10005443 Ry
      -> PAW hartree energy AE =      21.05173754 Ry
      -> PAW hartree energy PS =     -21.03301746 Ry
      -> PAW xc energy AE      =    -636.84525546 Ry
      -> PAW xc energy PS      =      25.72648094 Ry
      -> total E_H with PAW    =     800.51049368 Ry
      -> total E_XC with PAW   =    -698.91240509 Ry

     convergence has been achieved in  11 iterations

     Writing output data file ./work/sic_gec_23.save/

     General routines

     PAW routines

   This run was terminated on:  19:33: 2   8Aug2021

   JOB DONE.