     Program PWSCF v.6.8 starts on  8Aug2021 at 12:51:29

     Waiting for input...
     Reading input from standard input

     Current dimensions of program PWSCF are:
     Max number of different atomic species (ntypx) = 10
     Max number of k-points (npk) =  40000
     Max angular momentum in pseudopotentials (lmaxx) =  4

     IMPORTANT: XC functional enforced from input :
     Exchange-correlation= PBE
                           (   1   4   3   4   0   0   0)
     Any further DFT definition will be discarded
     Please, verify this is what you really want

     DFT-D3 Dispersion Correction (3-body terms):
       Reference C6 values for interpolation:

         atom   Coordination number   C6
         C          0.000            98.23
         C          0.987            86.49
         C          1.998            58.72
         C          2.999            51.56
         C          3.984            36.41
         Si         0.000           635.71
         Si         0.951           540.53
         Si         1.944           466.25
         Si         2.941           443.01
         Si         3.868           299.55
         Ge         0.000           727.09
         Ge         0.943           633.70
         Ge         1.945           573.31
         Ge         2.919           459.90
         Ge         3.897           360.58

       Values used:

         atom   Coordination number  R0_AB[au]  C6      C8
         C          2.993            2.750     51.37   1485.71
         Ge         3.729            3.649    367.50  33847.75
         C          2.993            2.750     51.37   1485.71
         Ge         3.729            3.649    367.50  33847.75
         C          2.993            2.750     51.37   1485.71
         Ge         3.729            3.649    367.50  33847.75
         C          2.993            2.750     51.37   1485.71
         Ge         3.729            3.649    367.50  33847.75
         C          2.967            2.750     51.46   1488.29
         Si         3.375            3.583    374.42  26781.27
         C          2.967            2.750     51.46   1488.29
         Si         3.375            3.583    374.42  26781.27
         C          2.967            2.750     51.46   1488.29
         Si         3.375            3.583    374.42  26781.27
         C          2.967            2.750     51.46   1488.29
         Si         3.375            3.583    374.42  26781.27

         Molecular C6 ( Ry / a.u.^6 ) =     44341.84

     Found symmetry operation: I + (  0.0000 -0.5000  0.0000)
     This is a supercell, fractional translations are disabled

     Using Slab Decomposition

     bravais-lattice index     =            4
     lattice parameter (alat)  =      12.5250  a.u.
     unit-cell volume          =    6418.4032 (a.u.)^3
     number of atoms/cell      =           16
     number of atomic types    =            3
     number of electrons       =        64.00
     number of Kohn-Sham states=           38
     kinetic-energy cutoff     =      40.0000  Ry
     charge density cutoff     =     200.0000  Ry
     scf convergence threshold =      1.0E-06
     mixing beta               =       0.7000
     number of iterations used =            8  plain     mixing
     Exchange-correlation= PBE
                           (   1   4   3   4   0   0   0)

     celldm(1)=  12.525029  celldm(2)=   0.000000  celldm(3)=   3.771900
     celldm(4)=   0.000000  celldm(5)=   0.000000  celldm(6)=   0.000000

     crystal axes: (cart. coord. in units of alat)
               a(1) = (   1.000000   0.000000   0.000000 )
               a(2) = (  -0.500000   0.866025   0.000000 )
               a(3) = (   0.000000   0.000000   3.771900 )

     reciprocal axes: (cart. coord. in units 2 pi/alat)
               b(1) = (  1.000000  0.577350 -0.000000 )
               b(2) = (  0.000000  1.154701  0.000000 )
               b(3) = (  0.000000 -0.000000  0.265118 )

     PseudoPot. # 1 for C  read from file:
     ./pseudo/C.pbe-n-rrkjus_psl.1.0.0.UPF
     MD5 check sum: 1fdd950c42eb37d8afe3dd2f8d12311e
     Pseudo is Ultrasoft + core correction, Zval =  4.0
     Generated using &quot;atomic&quot; code by A. Dal Corso  v.6.3MaX
     Using radial grid of 1073 points,  4 beta functions with:
                l(1) =   0
                l(2) =   0
                l(3) =   1
                l(4) =   1
     Q(r) pseudized with 0 coefficients

     PseudoPot. # 2 for Ge read from file:
     ./pseudo/Ge.pbe-n-rrkjus_psl.1.0.0.UPF
     MD5 check sum: a23a7f3f7456476e534e54484b27d8e8
     Pseudo is Ultrasoft + core correction, Zval =  4.0
     Generated using &quot;atomic&quot; code by A. Dal Corso  v.6.3
     Using radial grid of 1207 points,  4 beta functions with:
                l(1) =   0
                l(2) =   0
                l(3) =   1
                l(4) =   1
     Q(r) pseudized with 0 coefficients

     PseudoPot. # 3 for Si read from file:
     ./pseudo/Si.pbe-n-rrkjus_psl.1.0.0.UPF
     MD5 check sum: fa25574f73a70a4139f2adfbefec430c
     Pseudo is Ultrasoft + core correction, Zval =  4.0
     Generated using &quot;atomic&quot; code by A. Dal Corso  v.6.3
     Using radial grid of 1141 points,  6 beta functions with:
                l(1) =   0
                l(2) =   0
                l(3) =   1
                l(4) =   1
                l(5) =   2
                l(6) =   2
     Q(r) pseudized with 0 coefficients

     atomic species   valence    mass     pseudopotential
        C              4.00    12.01070     C ( 1.00)
        Ge             4.00    72.64000     Ge( 1.00)
        Si             4.00    28.08550     Si( 1.00)

      6 Sym. Ops. (no inversion) found

                                    s                        frac. trans.

      isym =  1     identity

 cryst.   s( 1) = (     1          0          0      )
                  (     0          1          0      )
                  (     0          0          1      )

 cart.    s( 1) = (  1.0000000  0.0000000  0.0000000 )
                  (  0.0000000  1.0000000  0.0000000 )
                  (  0.0000000  0.0000000  1.0000000 )

      isym =  2     120 deg rotation - cryst. axis [0,0,1]

[...]

      isym =  3     120 deg rotation - cryst. axis [0,0,-1]

[...]

      isym =  4     inv. 180 deg rotation - cart. axis [1,0,0]

[...]

      isym =  5     inv. 180 deg rotation - cryst. axis [0,1,0]

[...]

      isym =  6     inv. 180 deg rotation - cryst. axis [1,1,0]

 cryst.   s( 6) = (     0         -1          0      )
                  (    -1          0          0      )
                  (     0          0          1      )

 cart.    s( 6) = (  0.5000000 -0.8660254  0.0000000 )
                  ( -0.8660254 -0.5000000  0.0000000 )
                  (  0.0000000  0.0000000  1.0000000 )

     point group C_3v (3m)
     there are  3 classes
     the character table:

       E     2C3   3s_v
A_1    1.00  1.00  1.00
A_2    1.00  1.00 -1.00
E      2.00 -1.00  0.00

     the symmetry operations in each class and the name of the first element:

     E        1
          identity
     2C3      2    3
          120 deg rotation - cryst. axis [0,0,1]
     3s_v     4    5    6
          inv. 180 deg rotation - cart. axis [1,0,0]

   Cartesian axes

     site n.     atom                  positions (alat units)
         1           C   tau(   1) = (   0.0000000   0.0000000   2.1702231  )
         2           Ge  tau(   2) = (   0.0000000   0.2886751   2.1702231  )
         3           C   tau(   3) = (  -0.2500000   0.4330127   2.1702231  )
         4           Ge  tau(   4) = (  -0.2500000   0.7216878   2.1702231  )
         5           C   tau(   5) = (   0.5000000   0.0000000   2.1702231  )
         6           Ge  tau(   6) = (   0.5000000   0.2886751   2.1702231  )
         7           C   tau(   7) = (   0.2500000   0.4330127   2.1702231  )
         8           Ge  tau(   8) = (   0.2500000   0.7216878   2.1702231  )
         9           C   tau(   9) = (   0.2500000   0.4330127   1.5087599  )
        10           Si  tau(  10) = (   0.2500000   0.7216878   1.5087599  )
        11           C   tau(  11) = (   0.0000000   0.0000000   1.5087599  )
        12           Si  tau(  12) = (   0.0000000   0.2886751   1.5087599  )
        13           C   tau(  13) = (  -0.2500000   0.4330127   1.5087599  )
        14           Si  tau(  14) = (  -0.2500000   0.7216878   1.5087599  )
        15           C   tau(  15) = (   0.5000000   0.0000000   1.5087599  )
        16           Si  tau(  16) = (   0.5000000   0.2886751   1.5087599  )

   Crystallographic axes

     site n.     atom                  positions (cryst. coord.)
         1           C   tau(   1) = (  0.0000000  0.0000000  0.5753661  )
         2           Ge  tau(   2) = (  0.1666667  0.3333333  0.5753661  )
         3           C   tau(   3) = (  0.0000000  0.5000000  0.5753661  )
         4           Ge  tau(   4) = (  0.1666667  0.8333333  0.5753661  )
         5           C   tau(   5) = (  0.5000000  0.0000000  0.5753661  )
         6           Ge  tau(   6) = (  0.6666667  0.3333333  0.5753661  )
         7           C   tau(   7) = (  0.5000000  0.5000000  0.5753661  )
         8           Ge  tau(   8) = (  0.6666667  0.8333333  0.5753661  )
         9           C   tau(   9) = (  0.5000000  0.5000000  0.4000000  )
        10           Si  tau(  10) = (  0.6666667  0.8333333  0.4000000  )
        11           C   tau(  11) = (  0.0000000  0.0000000  0.4000000  )
        12           Si  tau(  12) = (  0.1666667  0.3333333  0.4000000  )
        13           C   tau(  13) = (  0.0000000  0.5000000  0.4000000  )
        14           Si  tau(  14) = (  0.1666667  0.8333333  0.4000000  )
        15           C   tau(  15) = (  0.5000000  0.0000000  0.4000000  )
        16           Si  tau(  16) = (  0.6666667  0.3333333  0.4000000  )

     number of k points=     7  Marzari-Vanderbilt smearing, width (Ry)=  0.0500
                       cart. coord. in units 2pi/alat
        k(    1) = (   0.0000000   0.0000000   0.0000000), wk =   0.0555556
        k(    2) = (   0.0000000   0.1924501   0.0000000), wk =   0.3333333
        k(    3) = (   0.0000000   0.3849002   0.0000000), wk =   0.3333333
        k(    4) = (   0.0000000  -0.5773503   0.0000000), wk =   0.1666667
        k(    5) = (   0.1666667   0.2886751   0.0000000), wk =   0.3333333
        k(    6) = (   0.1666667   0.4811252   0.0000000), wk =   0.6666667
        k(    7) = (   0.3333333   0.5773503   0.0000000), wk =   0.1111111

                       cryst. coord.
        k(    1) = (   0.0000000   0.0000000   0.0000000), wk =   0.0555556
        k(    2) = (   0.0000000   0.1666667   0.0000000), wk =   0.3333333
        k(    3) = (   0.0000000   0.3333333   0.0000000), wk =   0.3333333
        k(    4) = (   0.0000000  -0.5000000   0.0000000), wk =   0.1666667
        k(    5) = (   0.1666667   0.1666667   0.0000000), wk =   0.3333333
        k(    6) = (   0.1666667   0.3333333   0.0000000), wk =   0.6666667
        k(    7) = (   0.3333333   0.3333333   0.0000000), wk =   0.1111111

     Check: negative core charge=   -0.000010

     Initial potential from superposition of free atoms

     starting charge   63.99436, renormalised to   64.00000

     negative rho (up, down):  4.648E-04 0.000E+00
     Starting wfcs are   64 randomized atomic wfcs

     Self-consistent Calculation

     iteration #  1     ecut=    40.00 Ry     beta= 0.70
     Davidson diagonalization with overlap

     ethr =  1.00E-02,  avg # of iterations =  2.0

     negative rho (up, down):  6.626E-04 0.000E+00

     WARNING: integrated charge=    64.00113189, expected=    64.00000000

     total energy              =    -189.51276172 Ry
     estimated scf accuracy    <       4.32250817 Ry

[...]

     ethr =  6.75E-03,  avg # of iterations =  3.7

[...]

     ethr =  6.75E-03,  avg # of iterations =  2.0
     Minimization algorithm failed to find Fermi energy: reverting to bisection
     Possible cause: smearing is larger than the electronic band-gap.

[...]

     WARNING: integrated charge=    64.00003353, expected=    64.00000000

[...]

     c_bands:  1 eigenvalues not converged
     ethr =  5.55E-06,  avg # of iterations = 11.6
     Minimization algorithm failed to find Fermi energy: reverting to bisection
     Possible cause: smearing is larger than the electronic band-gap.

[...]

     c_bands:  1 eigenvalues not converged
     ethr =  8.44E-07,  avg # of iterations =  8.4
     Minimization algorithm failed to find Fermi energy: reverting to bisection
     Possible cause: smearing is larger than the electronic band-gap.

[...]

     total energy              =    -191.41751200 Ry
     estimated scf accuracy    <       0.00000517 Ry

     iteration # 12     ecut=    40.00 Ry     beta= 0.70
     Davidson diagonalization with overlap

     ethr =  8.08E-09,  avg # of iterations =  2.0
     Minimization algorithm failed to find Fermi energy: reverting to bisection
     Possible cause: smearing is larger than the electronic band-gap.

     negative rho (up, down):  7.119E-04 0.000E+00

     End of self-consistent calculation

          k = 0.0000 0.0000 0.0000 ( 27479 PWs)   bands (ev):

   -15.9998 -15.2649 -13.2105 -13.2102 -13.2102 -12.8287 -12.8287 -12.8287
   -10.7612 -10.7612 -10.7612  -9.9398  -9.9398  -9.9398  -5.9732  -5.4037
    -5.4037  -5.4035  -5.3987  -5.3031  -5.3031  -5.3031  -3.9406  -3.9406
    -3.6194  -3.6194  -3.1782  -3.1781  -3.1781  -2.8255  -2.8253  -2.8253
    -0.4952  -0.4951  -0.4951  -0.3656   0.1960   0.1962

     occupation numbers
     1.0000   1.0000   1.0000   1.0000   1.0000   1.0000   1.0000   1.0000
     1.0000   1.0000   1.0000   1.0000   1.0000   1.0000   1.0000   1.0000
     1.0000   1.0000   1.0000   1.0000   1.0000   1.0000   1.0070   1.0070
     1.0297   1.0297   1.0819   1.0819   1.0819   1.0188   1.0188   1.0188
     0.0000   0.0000   0.0000   0.0000   0.0000   0.0000

[...]

          k = 0.3333 0.5774 0.0000 ( 27354 PWs)   bands (ev):

   -14.7823 -14.7820 -14.7820 -14.1423 -14.1423 -14.1423 -12.4963 -12.3254
   -10.7747  -9.6879  -7.7938  -7.7937  -7.7937  -7.7515  -7.4996  -7.4089
    -7.4089  -7.4089  -5.4824  -5.4822  -5.4822  -5.4238  -5.4238  -5.4238
    -4.7105  -4.7104  -4.7104  -4.2075  -4.2074  -4.2073  -2.4688  -2.2039
    -0.7185  -0.0480   1.5030   1.5030   1.5030   1.9151

     occupation numbers
     1.0000   1.0000   1.0000   1.0000   1.0000   1.0000   1.0000   1.0000
     1.0000   1.0000   1.0000   1.0000   1.0000   1.0000   1.0000   1.0000
     1.0000   1.0000   1.0000   1.0000   1.0000   1.0000   1.0000   1.0000
     1.0000   1.0000   1.0000   1.0014   1.0014   1.0014   0.7318   0.4432
     0.0002   0.0000   0.0000   0.0000   0.0000   0.0000

     the Fermi energy is    -2.1624 ev

!    total energy              =    -191.41751244 Ry
     estimated scf accuracy    <       0.00000028 Ry
     smearing contrib. (-TS)   =       0.03923450 Ry
     internal energy E=F+TS    =    -191.45674694 Ry

     The total energy is F=E-TS. E is the sum of the following terms:
     one-electron contribution =   -1452.88938266 Ry
     hartree contribution      =     738.88390509 Ry
     xc contribution           =     -86.56633530 Ry
     ewald contribution        =     609.18953048 Ry
     DFT-D3 Dispersion         =      -0.07446455 Ry

     convergence has been achieved in  12 iterations

     Writing output data file ./work/sic_gec+21.save/

     General routines

   This run was terminated on:  13: 4:13   8Aug2021

   JOB DONE.