     Program PWSCF v.6.8 starts on  8Aug2021 at 13:31:32

     Waiting for input...
     Reading input from standard input

     Current dimensions of program PWSCF are:
     Max number of different atomic species (ntypx) = 10
     Max number of k-points (npk) =  40000
     Max angular momentum in pseudopotentials (lmaxx) =  4

     IMPORTANT: XC functional enforced from input :
     Exchange-correlation= PBE
                           (   1   4   3   4   0   0   0)
     Any further DFT definition will be discarded
     Please, verify this is what you really want

     DFT-D3 Dispersion Correction (3-body terms):
       Reference C6 values for interpolation:

         atom   Coordination number   C6
         C          0.000            98.23
         C          0.987            86.49
         C          1.998            58.72
         C          2.999            51.56
         C          3.984            36.41
         Si         0.000           635.71
         Si         0.951           540.53
         Si         1.944           466.25
         Si         2.941           443.01
         Si         3.868           299.55
         Ge         0.000           727.09
         Ge         0.943           633.70
         Ge         1.945           573.31
         Ge         2.919           459.90
         Ge         3.897           360.58

       Values used:

         atom   Coordination number  R0_AB[au]  C6      C8
         C          2.993            2.750     51.37   1485.71
         Ge         3.728            3.649    367.53  33850.10
         C          2.993            2.750     51.37   1485.71
         Ge         3.728            3.649    367.53  33850.10
         C          2.993            2.750     51.37   1485.71
         Ge         3.728            3.649    367.53  33850.10
         C          2.993            2.750     51.37   1485.71
         Ge         3.728            3.649    367.53  33850.10
         C          2.967            2.750     51.46   1488.28
         Si         3.375            3.583    374.57  26791.50
         C          2.967            2.750     51.46   1488.28
         Si         3.375            3.583    374.57  26791.50
         C          2.967            2.750     51.46   1488.28
         Si         3.375            3.583    374.57  26791.50
         C          2.967            2.750     51.46   1488.28
         Si         3.375            3.583    374.57  26791.50

         Molecular C6 ( Ry / a.u.^6 ) =     44348.79

     Found symmetry operation: I + (  0.0000 -0.5000  0.0000)
     This is a supercell, fractional translations are disabled

     Using Slab Decomposition

     bravais-lattice index     =            4
     lattice parameter (alat)  =      12.5250  a.u.
     unit-cell volume          =    6418.4032 (a.u.)^3
     number of atoms/cell      =           16
     number of atomic types    =            3
     number of electrons       =        64.00
     number of Kohn-Sham states=           38
     kinetic-energy cutoff     =      40.0000  Ry
     charge density cutoff     =     200.0000  Ry
     scf convergence threshold =      1.0E-06
     mixing beta               =       0.7000
     number of iterations used =            8  plain     mixing
     Exchange-correlation= PBE
                           (   1   4   3   4   0   0   0)

     celldm(1)=  12.525029  celldm(2)=   0.000000  celldm(3)=   3.771900
     celldm(4)=   0.000000  celldm(5)=   0.000000  celldm(6)=   0.000000

     crystal axes: (cart. coord. in units of alat)
               a(1) = (   1.000000   0.000000   0.000000 )
               a(2) = (  -0.500000   0.866025   0.000000 )
               a(3) = (   0.000000   0.000000   3.771900 )

     reciprocal axes: (cart. coord. in units 2 pi/alat)
               b(1) = (  1.000000  0.577350 -0.000000 )
               b(2) = (  0.000000  1.154701  0.000000 )
               b(3) = (  0.000000 -0.000000  0.265118 )

     PseudoPot. # 1 for C  read from file:
     ./pseudo/C.pbe-n-rrkjus_psl.1.0.0.UPF
     MD5 check sum: 1fdd950c42eb37d8afe3dd2f8d12311e
     Pseudo is Ultrasoft + core correction, Zval =  4.0
     Generated using &quot;atomic&quot; code by A. Dal Corso  v.6.3MaX
     Using radial grid of 1073 points,  4 beta functions with:
                l(1) =   0
                l(2) =   0
                l(3) =   1
                l(4) =   1
     Q(r) pseudized with 0 coefficients

     PseudoPot. # 2 for Ge read from file:
     ./pseudo/Ge.pbe-n-kjpaw_psl.1.0.0.UPF
     MD5 check sum: 86cd6a1ce4ead6fa7a4673d64b86017a
     Pseudo is Projector augmented-wave + core cor, Zval =  4.0
     Generated using &quot;atomic&quot; code by A. Dal Corso  v.6.3
     Shape of augmentation charge: PSQ
     Using radial grid of 1207 points,  4 beta functions with:
                l(1) =   0
                l(2) =   0
                l(3) =   1
                l(4) =   1
     Q(r) pseudized with 0 coefficients

     PseudoPot. # 3 for Si read from file:
     ./pseudo/Si.pbe-n-rrkjus_psl.1.0.0.UPF
     MD5 check sum: fa25574f73a70a4139f2adfbefec430c
     Pseudo is Ultrasoft + core correction, Zval =  4.0
     Generated using &quot;atomic&quot; code by A. Dal Corso  v.6.3
     Using radial grid of 1141 points,  6 beta functions with:
                l(1) =   0
                l(2) =   0
                l(3) =   1
                l(4) =   1
                l(5) =   2
                l(6) =   2
     Q(r) pseudized with 0 coefficients

     atomic species   valence    mass     pseudopotential
        C              4.00    12.01070     C ( 1.00)
        Ge             4.00    72.64000     Ge( 1.00)
        Si             4.00    28.08550     Si( 1.00)

      6 Sym. Ops. (no inversion) found

                                    s                        frac. trans.

      isym =  1     identity

 cryst.   s( 1) = (     1          0          0      )
                  (     0          1          0      )
                  (     0          0          1      )

 cart.    s( 1) = (  1.0000000  0.0000000  0.0000000 )
                  (  0.0000000  1.0000000  0.0000000 )
                  (  0.0000000  0.0000000  1.0000000 )

      isym =  2     120 deg rotation - cryst. axis [0,0,1]

[...]

      isym =  3     120 deg rotation - cryst. axis [0,0,-1]

[...]

      isym =  4     inv. 180 deg rotation - cart. axis [1,0,0]

[...]

      isym =  5     inv. 180 deg rotation - cryst. axis [0,1,0]

[...]

      isym =  6     inv. 180 deg rotation - cryst. axis [1,1,0]

 cryst.   s( 6) = (     0         -1          0      )
                  (    -1          0          0      )
                  (     0          0          1      )

 cart.    s( 6) = (  0.5000000 -0.8660254  0.0000000 )
                  ( -0.8660254 -0.5000000  0.0000000 )
                  (  0.0000000  0.0000000  1.0000000 )

     point group C_3v (3m)
     there are  3 classes
     the character table:

       E     2C3   3s_v
A_1    1.00  1.00  1.00
A_2    1.00  1.00 -1.00
E      2.00 -1.00  0.00

     the symmetry operations in each class and the name of the first element:

     E        1
          identity
     2C3      2    3
          120 deg rotation - cryst. axis [0,0,1]
     3s_v     4    5    6
          inv. 180 deg rotation - cart. axis [1,0,0]

   Cartesian axes

     site n.     atom                  positions (alat units)
         1           C   tau(   1) = (  -0.0000001   0.2886751   2.1702231  )
         2           Ge  tau(   2) = (  -0.0000001  -0.0000000   2.1702231  )
         3           C   tau(   3) = (  -0.2500001   0.7216878   2.1702231  )
         4           Ge  tau(   4) = (  -0.2500001   0.4330127   2.1702231  )
         5           C   tau(   5) = (   0.4999999   0.2886751   2.1702231  )
         6           Ge  tau(   6) = (   0.4999999  -0.0000000   2.1702231  )
         7           C   tau(   7) = (   0.2499999   0.7216878   2.1702231  )
         8           Ge  tau(   8) = (   0.2499999   0.4330127   2.1702231  )
         9           C   tau(   9) = (   0.0000000   0.0000000   1.5087599  )
        10           Si  tau(  10) = (   0.0000000   0.2886751   1.5087599  )
        11           C   tau(  11) = (  -0.2500000   0.4330127   1.5087599  )
        12           Si  tau(  12) = (  -0.2500000   0.7216878   1.5087599  )
        13           C   tau(  13) = (   0.5000000   0.0000000   1.5087599  )
        14           Si  tau(  14) = (   0.5000000   0.2886751   1.5087599  )
        15           C   tau(  15) = (   0.2500000   0.4330127   1.5087599  )
        16           Si  tau(  16) = (   0.2500000   0.7216878   1.5087599  )

   Crystallographic axes

     site n.     atom                  positions (cryst. coord.)
         1           C   tau(   1) = (  0.1666666  0.3333333  0.5753661  )
         2           Ge  tau(   2) = ( -0.0000001 -0.0000000  0.5753661  )
         3           C   tau(   3) = (  0.1666666  0.8333333  0.5753661  )
         4           Ge  tau(   4) = ( -0.0000001  0.5000000  0.5753661  )
         5           C   tau(   5) = (  0.6666666  0.3333333  0.5753661  )
         6           Ge  tau(   6) = (  0.4999999 -0.0000000  0.5753661  )
         7           C   tau(   7) = (  0.6666666  0.8333333  0.5753661  )
         8           Ge  tau(   8) = (  0.4999999  0.5000000  0.5753661  )
         9           C   tau(   9) = (  0.0000000  0.0000000  0.4000000  )
        10           Si  tau(  10) = (  0.1666667  0.3333333  0.4000000  )
        11           C   tau(  11) = (  0.0000000  0.5000000  0.4000000  )
        12           Si  tau(  12) = (  0.1666667  0.8333333  0.4000000  )
        13           C   tau(  13) = (  0.5000000  0.0000000  0.4000000  )
        14           Si  tau(  14) = (  0.6666667  0.3333333  0.4000000  )
        15           C   tau(  15) = (  0.5000000  0.5000000  0.4000000  )
        16           Si  tau(  16) = (  0.6666667  0.8333333  0.4000000  )

     number of k points=     7  Marzari-Vanderbilt smearing, width (Ry)=  0.0500
                       cart. coord. in units 2pi/alat
        k(    1) = (   0.0000000   0.0000000   0.0000000), wk =   0.0555556
        k(    2) = (   0.0000000   0.1924501   0.0000000), wk =   0.3333333
        k(    3) = (   0.0000000   0.3849002   0.0000000), wk =   0.3333333
        k(    4) = (   0.0000000  -0.5773503   0.0000000), wk =   0.1666667
        k(    5) = (   0.1666667   0.2886751   0.0000000), wk =   0.3333333
        k(    6) = (   0.1666667   0.4811252   0.0000000), wk =   0.6666667
        k(    7) = (   0.3333333   0.5773503   0.0000000), wk =   0.1111111

                       cryst. coord.
        k(    1) = (   0.0000000   0.0000000   0.0000000), wk =   0.0555556
        k(    2) = (   0.0000000   0.1666667   0.0000000), wk =   0.3333333
        k(    3) = (   0.0000000   0.3333333   0.0000000), wk =   0.3333333
        k(    4) = (   0.0000000  -0.5000000   0.0000000), wk =   0.1666667
        k(    5) = (   0.1666667   0.1666667   0.0000000), wk =   0.3333333
        k(    6) = (   0.1666667   0.3333333   0.0000000), wk =   0.6666667
        k(    7) = (   0.3333333   0.3333333   0.0000000), wk =   0.1111111

     Check: negative core charge=   -0.000010

     Initial potential from superposition of free atoms

     starting charge   63.99436, renormalised to   64.00000

     negative rho (up, down):  4.593E-04 0.000E+00
     Starting wfcs are   64 randomized atomic wfcs

     Self-consistent Calculation

     iteration #  1     ecut=    40.00 Ry     beta= 0.70
     Davidson diagonalization with overlap

     ethr =  1.00E-02,  avg # of iterations =  2.0

     negative rho (up, down):  6.711E-04 0.000E+00

     WARNING: integrated charge=    64.00093167, expected=    64.00000000

     total energy              =    -798.85664885 Ry
     estimated scf accuracy    <       4.30953279 Ry

[...]

     ethr =  6.73E-03,  avg # of iterations =  3.4

[...]

     ethr =  6.73E-03,  avg # of iterations =  2.0
     Minimization algorithm failed to find Fermi energy: reverting to bisection
     Possible cause: smearing is larger than the electronic band-gap.

[...]

     WARNING: integrated charge=    64.00003040, expected=    64.00000000

[...]

     c_bands:  1 eigenvalues not converged
     c_bands:  1 eigenvalues not converged
     ethr =  7.17E-07,  avg # of iterations = 13.9
     Minimization algorithm failed to find Fermi energy: reverting to bisection
     Possible cause: smearing is larger than the electronic band-gap.

[...]

     total energy              =    -800.75397015 Ry
     estimated scf accuracy    <       0.00000121 Ry

     iteration # 13     ecut=    40.00 Ry     beta= 0.70
     Davidson diagonalization with overlap

     ethr =  1.89E-09,  avg # of iterations =  3.6
     Minimization algorithm failed to find Fermi energy: reverting to bisection
     Possible cause: smearing is larger than the electronic band-gap.

     negative rho (up, down):  7.099E-04 0.000E+00

     End of self-consistent calculation

          k = 0.0000 0.0000 0.0000 ( 27479 PWs)   bands (ev):

   -15.9953 -15.2613 -13.2054 -13.2054 -13.2053 -12.8256 -12.8255 -12.8255
   -10.7553 -10.7553 -10.7553  -9.9357  -9.9357  -9.9356  -5.9680  -5.3977
    -5.3976  -5.3976  -5.3950  -5.2992  -5.2992  -5.2991  -3.9364  -3.9364
    -3.6133  -3.6133  -3.1676  -3.1676  -3.1676  -2.8435  -2.8435  -2.8435
    -0.3406  -0.3406  -0.3405  -0.3157   0.0767   0.0767

     occupation numbers
     1.0000   1.0000   1.0000   1.0000   1.0000   1.0000   1.0000   1.0000
     1.0000   1.0000   1.0000   1.0000   1.0000   1.0000   1.0000   1.0000
     1.0000   1.0000   1.0000   1.0000   1.0000   1.0000   1.0080   1.0080
     1.0328   1.0328   1.0831   1.0831   1.0831   1.0170   1.0170   1.0170
     0.0000   0.0000   0.0000   0.0000   0.0000   0.0000

[...]

          k = 0.3333 0.5774 0.0000 ( 27354 PWs)   bands (ev):

   -14.7775 -14.7775 -14.7774 -14.1388 -14.1387 -14.1386 -12.4907 -12.3233
   -10.7684  -9.6832  -7.7872  -7.7872  -7.7871  -7.7461  -7.4960  -7.4048
    -7.4048  -7.4048  -5.4761  -5.4761  -5.4760  -5.4203  -5.4202  -5.4202
    -4.7064  -4.7064  -4.7063  -4.2040  -4.2040  -4.2039  -2.3901  -2.3265
    -0.3835  -0.3085   1.6088   1.6088   1.6089   1.9485

     occupation numbers
     1.0000   1.0000   1.0000   1.0000   1.0000   1.0000   1.0000   1.0000
     1.0000   1.0000   1.0000   1.0000   1.0000   1.0000   1.0000   1.0000
     1.0000   1.0000   1.0000   1.0000   1.0000   1.0000   1.0000   1.0000
     1.0000   1.0000   1.0000   1.0017   1.0017   1.0017   0.6226   0.5520
     0.0000   0.0000   0.0000   0.0000   0.0000   0.0000

     the Fermi energy is    -2.1841 ev

!    total energy              =    -800.75397034 Ry
     estimated scf accuracy    <       0.00000005 Ry
     smearing contrib. (-TS)   =       0.03949607 Ry
     internal energy E=F+TS    =    -800.79346641 Ry

     The total energy is F=E-TS. E is the sum of the following terms:
     one-electron contribution =   -1451.22517479 Ry
     hartree contribution      =     738.90480297 Ry
     xc contribution           =     -86.56610883 Ry
     ewald contribution        =     609.18953048 Ry
     DFT-D3 Dispersion         =      -0.07441241 Ry
     one-center paw contrib.   =    -611.02210382 Ry
      -> PAW hartree energy AE =      18.18351122 Ry
      -> PAW hartree energy PS =     -18.16638862 Ry
      -> PAW xc energy AE      =    -635.88980915 Ry
      -> PAW xc energy PS      =      24.85058273 Ry
      -> total E_H with PAW    =     738.92192558 Ry
      -> total E_XC with PAW   =    -697.60533526 Ry

     convergence has been achieved in  13 iterations

     Writing output data file ./work/sic_gec+23.save/

     General routines

     PAW routines

   This run was terminated on:  13:41:47   8Aug2021

   JOB DONE.