     Program PWSCF v.6.5 starts on 13Apr2020 at 13: 9:59

     Current dimensions of program PWSCF are:
     Max number of different atomic species (ntypx) = 10
     Max number of k-points (npk) =  40000
     Max angular momentum in pseudopotentials (lmaxx) =  3

     IMPORTANT: XC functional enforced from input :
     Exchange-correlation= PBE
                           (   1   4   3   4   0   0   0)
     Any further DFT definition will be discarded
     Please, verify this is what you really want

               file Ge.pbe-mt_fhi.UPF: wavefunction(s)  4d 4f renormalized
               file C.pbe-mt_fhi.UPF: wavefunction(s)  4f renormalized
               file Si.pbe-mt_fhi.UPF: wavefunction(s)  4f renormalized

     Parameters for Dispersion (Grimme-D2) Correction:
       atom      VdW radius       C_6

        Ge         3.264        593.221
        C          2.744         60.710
        Si         3.243        320.200
     Found symmetry operation: I + (  0.0000  0.2500  0.0000)
     This is a supercell, fractional translations are disabled

     bravais-lattice index     =            4
     lattice parameter (alat)  =      23.1302  a.u.
     unit-cell volume          =   17511.3678 (a.u.)^3
     number of atoms/cell      =           32
     number of atomic types    =            3
     number of electrons       =       128.00
     number of Kohn-Sham states=           77
     kinetic-energy cutoff     =      30.0000  Ry
     charge density cutoff     =     120.0000  Ry
     convergence threshold     =      1.0E-04
     mixing beta               =       0.7000
     number of iterations used =            8  plain     mixing
     Exchange-correlation= PBE
                           (   1   4   3   4   0   0   0)

     celldm(1)=  23.130248  celldm(2)=   0.000000  celldm(3)=   1.633987
     celldm(4)=   0.000000  celldm(5)=   0.000000  celldm(6)=   0.000000

     crystal axes: (cart. coord. in units of alat)
               a(1) = (   1.000000   0.000000   0.000000 )
               a(2) = (  -0.500000   0.866025   0.000000 )
               a(3) = (   0.000000   0.000000   1.633987 )

     reciprocal axes: (cart. coord. in units 2 pi/alat)
               b(1) = (  1.000000  0.577350 -0.000000 )
               b(2) = (  0.000000  1.154701  0.000000 )
               b(3) = (  0.000000 -0.000000  0.612000 )

     PseudoPot. # 1 for Ge read from file:
     ./pseudo/Ge.pbe-mt_fhi.UPF
     MD5 check sum: b08ff19c3d362044f6e29226b459d86a
     Pseudo is Norm-conserving, Zval =  4.0
     Generated using FHI98PP, converted with fhi2upf.x v.5.0.2
     Using radial grid of  529 points,  3 beta functions with:
                l(1) =   1
                l(2) =   2
                l(3) =   3

     PseudoPot. # 2 for C  read from file:
     ./pseudo/C.pbe-mt_fhi.UPF
     MD5 check sum: 058ca341f9d6d5327d9962fd88a91b65
     Pseudo is Norm-conserving, Zval =  4.0
     Generated using FHI98PP, converted with fhi2upf.x v.5.0.2
     Using radial grid of  461 points,  3 beta functions with:
                l(1) =   0
                l(2) =   1
                l(3) =   3

     PseudoPot. # 3 for Si read from file:
     ./pseudo/Si.pbe-mt_fhi.UPF
     MD5 check sum: 259057c2adf9952f9ced37ae3d9e311d
     Pseudo is Norm-conserving, Zval =  4.0
     Generated using FHI98PP, converted with fhi2upf.x v.5.0.2
     Using radial grid of  495 points,  3 beta functions with:
                l(1) =   0
                l(2) =   1
                l(3) =   3

     atomic species   valence    mass     pseudopotential
        Ge             4.00    72.59000     Ge( 1.00)
        C              4.00    12.01070     C ( 1.00)
        Si             4.00    28.08550     Si( 1.00)

     12 Sym. Ops. (no inversion) found

   Cartesian axes

     site n.     atom                  positions (alat units)
         1           C   tau(   1) = (   0.0000000   0.0000000   0.8169935  )
         2           Si  tau(   2) = (   0.0000000   0.1443382   0.8169935  )
         3           C   tau(   3) = (  -0.1250000   0.2165064   0.8169935  )
         4           Si  tau(   4) = (  -0.1250000   0.3608446   0.8169935  )
         5           C   tau(   5) = (  -0.2500000   0.4330127   0.8169935  )
         6           Si  tau(   6) = (  -0.2500000   0.5773509   0.8169935  )
         7           C   tau(   7) = (  -0.3750000   0.6495191   0.8169935  )
         8           Si  tau(   8) = (  -0.3750000   0.7938573   0.8169935  )
         9           C   tau(   9) = (   0.2500000   0.0000000   0.8169935  )
        10           Si  tau(  10) = (   0.2500000   0.1443382   0.8169935  )
        11           C   tau(  11) = (   0.1250000   0.2165064   0.8169935  )
        12           Si  tau(  12) = (   0.1250000   0.3608446   0.8169935  )
        13           C   tau(  13) = (   0.0000000   0.4330127   0.8169935  )
        14           Si  tau(  14) = (   0.0000000   0.5773509   0.8169935  )
        15           C   tau(  15) = (  -0.1250000   0.6495191   0.8169935  )
        16           Si  tau(  16) = (  -0.1250000   0.7938573   0.8169935  )
        17           C   tau(  17) = (   0.5000000   0.0000000   0.8169935  )
        18           Si  tau(  18) = (   0.5000000   0.1443382   0.8169935  )
        19           C   tau(  19) = (   0.3750000   0.2165064   0.8169935  )
        20           Si  tau(  20) = (   0.3750000   0.3608446   0.8169935  )
        21           C   tau(  21) = (   0.2500000   0.4330127   0.8169935  )
        22           Si  tau(  22) = (   0.2500000   0.5773509   0.8169935  )
        23           C   tau(  23) = (   0.1250000   0.6495191   0.8169935  )
        24           Si  tau(  24) = (   0.1250000   0.7938573   0.8169935  )
        25           C   tau(  25) = (   0.7500000   0.0000000   0.8169935  )
        26           Si  tau(  26) = (   0.7500000   0.1443382   0.8169935  )
        27           C   tau(  27) = (   0.6250000   0.2165064   0.8169935  )
        28           Si  tau(  28) = (   0.6250000   0.3608446   0.8169935  )
        29           C   tau(  29) = (   0.5000000   0.4330127   0.8169935  )
        30           Si  tau(  30) = (   0.5000000   0.5773509   0.8169935  )
        31           C   tau(  31) = (   0.3750000   0.6495191   0.8169935  )
        32           Si  tau(  32) = (   0.3750000   0.7938573   0.8169935  )

     number of k points=     3  Methfessel-Paxton smearing, width (Ry)=  0.0060
                       cart. coord. in units 2pi/alat
        k(    1) = (   0.0000000   0.0000000   0.0000000), wk =   0.2222222
        k(    2) = (   0.0000000   0.3849002   0.0000000), wk =   1.3333333
        k(    3) = (   0.3333333   0.5773503   0.0000000), wk =   0.4444444

     Initial potential from superposition of free atoms

     starting charge  127.98805, renormalised to  128.00000

     negative rho (up, down):  1.094E-02 0.000E+00
     Starting wfcs are  512 randomized atomic wfcs

     Self-consistent Calculation

     iteration #  1     ecut=    30.00 Ry     beta= 0.70
     Davidson diagonalization with overlap
     ethr =  1.00E-02,  avg # of iterations =  2.3

     negative rho (up, down):  2.827E-03 0.000E+00

     total energy              =    -303.47240251 Ry
     Harris-Foulkes estimate   =    -310.15881923 Ry
     estimated scf accuracy    <       9.96236814 Ry

[...]

     negative rho (up, down):  4.406E-07 0.000E+00

[...]

     total energy              =    -307.17255324 Ry
     Harris-Foulkes estimate   =    -307.17259439 Ry
     estimated scf accuracy    <       0.00030419 Ry

     iteration #  6     ecut=    30.00 Ry     beta= 0.70
     Davidson diagonalization with overlap
     ethr =  2.38E-07,  avg # of iterations =  2.0

     End of self-consistent calculation

          k = 0.0000 0.0000 0.0000 ( 48515 PWs)   bands (ev):

   -17.1051 -16.0807 -16.0797 -16.0797 -16.0770 -16.0770 -16.0756 -14.3167
   -14.3167 -14.3148 -14.3148 -14.3138 -14.3136 -14.0856 -14.0850 -14.0850
   -11.1438 -11.1437 -11.1436  -9.9038  -9.9036  -9.9028  -9.9028  -9.9015
    -9.9015  -7.8926  -7.8926  -7.8914  -7.8912  -7.8894  -7.8894  -7.6955
    -7.6949  -7.6948  -7.6938  -7.6938  -7.6932  -7.0438  -6.0117  -6.0117
    -6.0114  -5.9585  -5.9577  -5.9577  -5.9554  -5.9554  -5.9543  -5.3322
    -5.3313  -5.3312  -5.3304  -5.3304  -5.3296  -4.4296  -4.4295  -4.0788
    -4.0787  -4.0769  -4.0769  -4.0765  -4.0763  -3.8709  -3.8704  -3.8704
    -0.5695  -0.5694  -0.5694  -0.0842   0.3572   0.3572   0.3577   0.3577
     0.3593   0.3593   0.8311   0.8311   0.8312

[...]

          k = 0.3333 0.5774 0.0000 ( 48552 PWs)   bands (ev):

   -16.7587 -16.7562 -16.7542 -15.7508 -15.7505 -15.7503 -14.8554 -14.8549
   -14.8547 -14.8524 -14.8521 -14.8515 -13.8536 -13.8515 -13.8496 -13.4885
   -10.8592 -10.8589 -10.8571 -10.4459  -9.8736  -9.8732  -9.8729  -9.8716
    -9.8713  -9.8709  -8.9468  -8.0436  -8.0434  -8.0433  -7.4828  -7.4809
    -7.4805  -6.6730  -6.6708  -6.6693  -6.2575  -6.2570  -6.2564  -6.2548
    -6.2542  -6.2536  -6.2169  -6.2168  -6.2167  -5.7587  -5.7579  -5.7569
    -5.6100  -5.6098  -5.6096  -4.8925  -4.8916  -4.8904  -4.6652  -4.6650
    -4.6645  -4.6628  -4.6624  -4.6620  -3.5911  -3.5894  -3.5879  -3.1372
    -0.5168  -0.4677  -0.4665  -0.4654   0.4307   0.4319   0.6853   0.6857
     0.6861   0.6871   0.6875   0.6880   1.5243

     the Fermi energy is    -3.0685 ev

!    total energy              =    -307.17259892 Ry
     Harris-Foulkes estimate   =    -307.17261358 Ry
     estimated scf accuracy    <       0.00001890 Ry

     The total energy is the sum of the following terms:

     one-electron contribution =   -2243.85553288 Ry
     hartree contribution      =    1142.28143871 Ry
     xc contribution           =     -95.34680922 Ry
     ewald contribution        =     889.92642206 Ry
     Dispersion Correction     =      -0.17819490 Ry
     smearing contrib. (-TS)   =       0.00007731 Ry

     convergence has been achieved in   6 iterations

     Forces acting on atoms (cartesian axes, Ry/au):

     atom    1 type  2   force =     0.00000000    0.00000000    0.00000000
     atom    2 type  3   force =     0.00000000   -0.00006939   -0.00000000
     atom    3 type  2   force =    -0.00022966    0.00048010    0.00000000
     atom    4 type  3   force =    -0.00012059   -0.00009960    0.00000000
     atom    5 type  2   force =     0.00016979    0.00009803    0.00000000
     atom    6 type  3   force =    -0.00014655   -0.00005463    0.00000000
     atom    7 type  2   force =     0.00030095   -0.00043894    0.00000000
     atom    8 type  3   force =    -0.00006009    0.00003469    0.00000000
     atom    9 type  2   force =     0.00053061   -0.00004116   -0.00000000
     atom   10 type  3   force =     0.00004417    0.00002550   -0.00000000
     atom   11 type  2   force =     0.00022966    0.00048010    0.00000000
     atom   12 type  3   force =     0.00012059   -0.00009960   -0.00000000
     atom   13 type  2   force =     0.00000000    0.00039929    0.00000000
     atom   14 type  3   force =     0.00000000   -0.00000000    0.00000000
     atom   15 type  2   force =     0.00034580   -0.00019965    0.00000000
     atom   16 type  3   force =    -0.00002596    0.00015423    0.00000000
     atom   17 type  2   force =     0.00000000   -0.00019606   -0.00000000
     atom   18 type  3   force =     0.00000000    0.00006166    0.00000000
     atom   19 type  2   force =     0.00008057    0.00004652    0.00000000
     atom   20 type  3   force =     0.00005340   -0.00003083    0.00000000
     atom   21 type  2   force =    -0.00016979    0.00009803   -0.00000000
     atom   22 type  3   force =     0.00014655   -0.00005463    0.00000000
     atom   23 type  2   force =    -0.00034580   -0.00019965    0.00000000
     atom   24 type  3   force =     0.00002596    0.00015423    0.00000000
     atom   25 type  2   force =    -0.00053061   -0.00004116   -0.00000000
     atom   26 type  3   force =    -0.00004417    0.00002550   -0.00000000
     atom   27 type  2   force =    -0.00008057    0.00004652    0.00000000
     atom   28 type  3   force =    -0.00005340   -0.00003083   -0.00000000
     atom   29 type  2   force =     0.00000000   -0.00009304    0.00000000
     atom   30 type  3   force =     0.00000000   -0.00005101    0.00000000
     atom   31 type  2   force =    -0.00030095   -0.00043894    0.00000000
     atom   32 type  3   force =     0.00006009    0.00003469    0.00000000

     Total force =     0.001581     Total SCF correction =     0.006054
     SCF correction compared to forces is large: reduce conv_thr to get better values

     Computing stress (Cartesian axis) and pressure

          total   stress  (Ry/bohr**3)                   (kbar)     P=      -14.33
  -0.00006529   0.00000000   0.00000000           -9.60        0.00        0.00
   0.00000000  -0.00006529   0.00000000            0.00       -9.60        0.00
   0.00000000   0.00000000  -0.00016164            0.00        0.00      -23.78

     Writing output data file ./work/sic44_cdd.save/

     General routines

   This run was terminated on:  13:32:28  13Apr2020

   JOB DONE.