     Program PWSCF v.6.4.1 starts on  7Apr2020 at 16: 4:20

     Waiting for input...
     Reading input from standard input

     Current dimensions of program PWSCF are:
     Max number of different atomic species (ntypx) = 10
     Max number of k-points (npk) =  40000
     Max angular momentum in pseudopotentials (lmaxx) =  3

     IMPORTANT: XC functional enforced from input :
     Exchange-correlation      = PBE ( 1  4  3  4 0 0)
     Any further DFT definition will be discarded
     Please, verify this is what you really want

               file Ge.pbe-mt_fhi.UPF: wavefunction(s)  4d 4f renormalized
               file C.pbe-mt_fhi.UPF: wavefunction(s)  4f renormalized
               file Si.pbe-mt_fhi.UPF: wavefunction(s)  4f renormalized

     Parameters for Dispersion (Grimme-D2) Correction:
       atom      VdW radius       C_6

        Ge         3.264        593.221
        C          2.744         60.710
        Si         3.243        320.200

     bravais-lattice index     =            4
     lattice parameter (alat)  =      23.1302  a.u.
     unit-cell volume          =   17511.3678 (a.u.)^3
     number of atoms/cell      =           50
     number of atomic types    =            3
     number of electrons       =       200.00
     number of Kohn-Sham states=          120
     kinetic-energy cutoff     =      30.0000  Ry
     charge density cutoff     =     120.0000  Ry
     convergence threshold     =      1.0E-04
     mixing beta               =       0.7000
     number of iterations used =            8  plain     mixing
     Exchange-correlation      = PBE ( 1  4  3  4 0 0)

     celldm(1)=  23.130248  celldm(2)=   0.000000  celldm(3)=   1.633987
     celldm(4)=   0.000000  celldm(5)=   0.000000  celldm(6)=   0.000000

     crystal axes: (cart. coord. in units of alat)
               a(1) = (   1.000000   0.000000   0.000000 )
               a(2) = (  -0.500000   0.866025   0.000000 )
               a(3) = (   0.000000   0.000000   1.633987 )

     reciprocal axes: (cart. coord. in units 2 pi/alat)
               b(1) = (  1.000000  0.577350 -0.000000 )
               b(2) = (  0.000000  1.154701  0.000000 )
               b(3) = (  0.000000 -0.000000  0.612000 )

     PseudoPot. # 1 for Ge read from file:
     ./pseudo/Ge.pbe-mt_fhi.UPF
     MD5 check sum: b08ff19c3d362044f6e29226b459d86a
     Pseudo is Norm-conserving, Zval =  4.0
     Generated using FHI98PP, converted with fhi2upf.x v.5.0.2
     Using radial grid of  529 points,  3 beta functions with:
                l(1) =   1
                l(2) =   2
                l(3) =   3

     PseudoPot. # 2 for C  read from file:
     ./pseudo/C.pbe-mt_fhi.UPF
     MD5 check sum: 058ca341f9d6d5327d9962fd88a91b65
     Pseudo is Norm-conserving, Zval =  4.0
     Generated using FHI98PP, converted with fhi2upf.x v.5.0.2
     Using radial grid of  461 points,  3 beta functions with:
                l(1) =   0
                l(2) =   1
                l(3) =   3

     PseudoPot. # 3 for Si read from file:
     ./pseudo/Si.pbe-mt_fhi.UPF
     MD5 check sum: 259057c2adf9952f9ced37ae3d9e311d
     Pseudo is Norm-conserving, Zval =  4.0
     Generated using FHI98PP, converted with fhi2upf.x v.5.0.2
     Using radial grid of  495 points,  3 beta functions with:
                l(1) =   0
                l(2) =   1
                l(3) =   3

     atomic species   valence    mass     pseudopotential
        Ge             4.00    72.59000     Ge( 1.00)
        C              4.00    12.01070     C ( 1.00)
        Si             4.00    28.08550     Si( 1.00)

      6 Sym. Ops. (no inversion) found

                                    s                        frac. trans.

      isym =  1     identity

 cryst.   s( 1) = (     1          0          0      )
                  (     0          1          0      )
                  (     0          0          1      )

 cart.    s( 1) = (  1.0000000  0.0000000  0.0000000 )
                  (  0.0000000  1.0000000  0.0000000 )
                  (  0.0000000  0.0000000  1.0000000 )

      isym =  2     120 deg rotation - cryst. axis [0,0,1]

[...]

      isym =  3     120 deg rotation - cryst. axis [0,0,-1]

[...]

      isym =  4     inv. 180 deg rotation - cart. axis [1,0,0]

[...]

      isym =  5     inv. 180 deg rotation - cryst. axis [0,1,0]

[...]

      isym =  6     inv. 180 deg rotation - cryst. axis [1,1,0]

 cryst.   s( 6) = (     0         -1          0      )
                  (    -1          0          0      )
                  (     0          0          1      )

 cart.    s( 6) = (  0.5000000 -0.8660254  0.0000000 )
                  ( -0.8660254 -0.5000000  0.0000000 )
                  (  0.0000000  0.0000000  1.0000000 )

     point group C_3v (3m)
     there are  3 classes
     the character table:

       E     2C3   3s_v
A_1    1.00  1.00  1.00
A_2    1.00  1.00 -1.00
E      2.00 -1.00  0.00

     the symmetry operations in each class and the name of the first element:

     E        1
          identity
     2C3      2    3
          120 deg rotation - cryst. axis [0,0,1]
     3s_v     4    5    6
          inv. 180 deg rotation - cart. axis [1,0,0]

   Cartesian axes

     site n.     atom                  positions (alat units)
         1           Ge  tau(   1) = (   0.0000000   0.0000000   0.2287582  )
         2           Ge  tau(   2) = (   0.0000000   0.1924510   0.2836601  )
         3           Ge  tau(   3) = (  -0.1666667   0.2886751   0.2287582  )
         4           Ge  tau(   4) = (  -0.1666667   0.4811261   0.2836601  )
         5           Ge  tau(   5) = (  -0.3333333   0.5773503   0.2287582  )
         6           Ge  tau(   6) = (  -0.3333333   0.7698012   0.2836601  )
         7           Ge  tau(   7) = (   0.3333333   0.0000000   0.2287582  )
         8           Ge  tau(   8) = (   0.3333333   0.1924510   0.2836601  )
         9           Ge  tau(   9) = (   0.1666667   0.2886751   0.2287582  )
        10           Ge  tau(  10) = (   0.1666667   0.4811261   0.2836601  )
        11           Ge  tau(  11) = (   0.0000000   0.5773503   0.2287582  )
        12           Ge  tau(  12) = (   0.0000000   0.7698012   0.2836601  )
        13           Ge  tau(  13) = (   0.6666667   0.0000000   0.2287582  )
        14           Ge  tau(  14) = (   0.6666667   0.1924510   0.2836601  )
        15           Ge  tau(  15) = (   0.5000000   0.2886751   0.2287582  )
        16           Ge  tau(  16) = (   0.5000000   0.4811261   0.2836601  )
        17           Ge  tau(  17) = (   0.3333333   0.5773503   0.2287582  )
        18           Ge  tau(  18) = (   0.3333333   0.7698012   0.2836601  )
        19           C   tau(  19) = (   0.0000000   0.0000000   0.0000000  )
        20           Si  tau(  20) = (   0.0000000   0.1443382   0.0000000  )
        21           C   tau(  21) = (  -0.1250000   0.2165064   0.0000000  )
        22           Si  tau(  22) = (  -0.1250000   0.3608446   0.0000000  )
        23           C   tau(  23) = (  -0.2500000   0.4330127   0.0000000  )
        24           Si  tau(  24) = (  -0.2500000   0.5773509   0.0000000  )
        25           C   tau(  25) = (  -0.3750000   0.6495191   0.0000000  )
        26           Si  tau(  26) = (  -0.3750000   0.7938573   0.0000000  )
        27           C   tau(  27) = (   0.2500000   0.0000000   0.0000000  )
        28           Si  tau(  28) = (   0.2500000   0.1443382   0.0000000  )
        29           C   tau(  29) = (   0.1250000   0.2165064   0.0000000  )
        30           Si  tau(  30) = (   0.1250000   0.3608446   0.0000000  )
        31           C   tau(  31) = (   0.0000000   0.4330127   0.0000000  )
        32           Si  tau(  32) = (   0.0000000   0.5773509   0.0000000  )
        33           C   tau(  33) = (  -0.1250000   0.6495191   0.0000000  )
        34           Si  tau(  34) = (  -0.1250000   0.7938573   0.0000000  )
        35           C   tau(  35) = (   0.5000000   0.0000000   0.0000000  )
        36           Si  tau(  36) = (   0.5000000   0.1443382   0.0000000  )
        37           C   tau(  37) = (   0.3750000   0.2165064   0.0000000  )
        38           Si  tau(  38) = (   0.3750000   0.3608446   0.0000000  )
        39           C   tau(  39) = (   0.2500000   0.4330127   0.0000000  )
        40           Si  tau(  40) = (   0.2500000   0.5773509   0.0000000  )
        41           C   tau(  41) = (   0.1250000   0.6495191   0.0000000  )
        42           Si  tau(  42) = (   0.1250000   0.7938573   0.0000000  )
        43           C   tau(  43) = (   0.7500000   0.0000000   0.0000000  )
        44           Si  tau(  44) = (   0.7500000   0.1443382   0.0000000  )
        45           C   tau(  45) = (   0.6250000   0.2165064   0.0000000  )
        46           Si  tau(  46) = (   0.6250000   0.3608446   0.0000000  )
        47           C   tau(  47) = (   0.5000000   0.4330127   0.0000000  )
        48           Si  tau(  48) = (   0.5000000   0.5773509   0.0000000  )
        49           C   tau(  49) = (   0.3750000   0.6495191   0.0000000  )
        50           Si  tau(  50) = (   0.3750000   0.7938573   0.0000000  )

   Crystallographic axes

     site n.     atom                  positions (cryst. coord.)
         1           Ge  tau(   1) = (  0.0000000  0.0000000  0.1400000  )
         2           Ge  tau(   2) = (  0.1111116  0.2222233  0.1736000  )
         3           Ge  tau(   3) = ( -0.0000000  0.3333333  0.1400000  )
         4           Ge  tau(   4) = (  0.1111116  0.5555566  0.1736000  )
         5           Ge  tau(   5) = ( -0.0000000  0.6666667  0.1400000  )
         6           Ge  tau(   6) = (  0.1111116  0.8888899  0.1736000  )
         7           Ge  tau(   7) = (  0.3333333  0.0000000  0.1400000  )
         8           Ge  tau(   8) = (  0.4444450  0.2222233  0.1736000  )
         9           Ge  tau(   9) = (  0.3333333  0.3333333  0.1400000  )
        10           Ge  tau(  10) = (  0.4444450  0.5555566  0.1736000  )
        11           Ge  tau(  11) = (  0.3333333  0.6666667  0.1400000  )
        12           Ge  tau(  12) = (  0.4444450  0.8888899  0.1736000  )
        13           Ge  tau(  13) = (  0.6666667  0.0000000  0.1400000  )
        14           Ge  tau(  14) = (  0.7777783  0.2222233  0.1736000  )
        15           Ge  tau(  15) = (  0.6666667  0.3333333  0.1400000  )
        16           Ge  tau(  16) = (  0.7777783  0.5555566  0.1736000  )
        17           Ge  tau(  17) = (  0.6666667  0.6666667  0.1400000  )
        18           Ge  tau(  18) = (  0.7777783  0.8888899  0.1736000  )
        19           C   tau(  19) = (  0.0000000  0.0000000  0.0000000  )
        20           Si  tau(  20) = (  0.0833337  0.1666674  0.0000000  )
        21           C   tau(  21) = (  0.0000000  0.2500000  0.0000000  )
        22           Si  tau(  22) = (  0.0833337  0.4166674  0.0000000  )
        23           C   tau(  23) = (  0.0000000  0.5000000  0.0000000  )
        24           Si  tau(  24) = (  0.0833337  0.6666674  0.0000000  )
        25           C   tau(  25) = (  0.0000000  0.7500000  0.0000000  )
        26           Si  tau(  26) = (  0.0833337  0.9166674  0.0000000  )
        27           C   tau(  27) = (  0.2500000  0.0000000  0.0000000  )
        28           Si  tau(  28) = (  0.3333337  0.1666674  0.0000000  )
        29           C   tau(  29) = (  0.2500000  0.2500000  0.0000000  )
        30           Si  tau(  30) = (  0.3333337  0.4166674  0.0000000  )
        31           C   tau(  31) = (  0.2500000  0.5000000  0.0000000  )
        32           Si  tau(  32) = (  0.3333337  0.6666674  0.0000000  )
        33           C   tau(  33) = (  0.2500000  0.7500000  0.0000000  )
        34           Si  tau(  34) = (  0.3333337  0.9166674  0.0000000  )
        35           C   tau(  35) = (  0.5000000  0.0000000  0.0000000  )
        36           Si  tau(  36) = (  0.5833337  0.1666674  0.0000000  )
        37           C   tau(  37) = (  0.5000000  0.2500000  0.0000000  )
        38           Si  tau(  38) = (  0.5833337  0.4166674  0.0000000  )
        39           C   tau(  39) = (  0.5000000  0.5000000  0.0000000  )
        40           Si  tau(  40) = (  0.5833337  0.6666674  0.0000000  )
        41           C   tau(  41) = (  0.5000000  0.7500000  0.0000000  )
        42           Si  tau(  42) = (  0.5833337  0.9166674  0.0000000  )
        43           C   tau(  43) = (  0.7500000  0.0000000  0.0000000  )
        44           Si  tau(  44) = (  0.8333337  0.1666674  0.0000000  )
        45           C   tau(  45) = (  0.7500000  0.2500000  0.0000000  )
        46           Si  tau(  46) = (  0.8333337  0.4166674  0.0000000  )
        47           C   tau(  47) = (  0.7500000  0.5000000  0.0000000  )
        48           Si  tau(  48) = (  0.8333337  0.6666674  0.0000000  )
        49           C   tau(  49) = (  0.7500000  0.7500000  0.0000000  )
        50           Si  tau(  50) = (  0.8333337  0.9166674  0.0000000  )

     number of k points=     3  Methfessel-Paxton smearing, width (Ry)=  0.0060
                       cart. coord. in units 2pi/alat
        k(    1) = (   0.0000000   0.0000000   0.0000000), wk =   0.2222222
        k(    2) = (   0.0000000   0.3849002   0.0000000), wk =   1.3333333
        k(    3) = (   0.3333333   0.5773503   0.0000000), wk =   0.4444444

                       cryst. coord.
        k(    1) = (   0.0000000   0.0000000   0.0000000), wk =   0.2222222
        k(    2) = (   0.0000000   0.3333333   0.0000000), wk =   1.3333333
        k(    3) = (   0.3333333   0.3333333   0.0000000), wk =   0.4444444

     Initial potential from superposition of free atoms

     starting charge  199.97158, renormalised to  200.00000

     negative rho (up, down):  7.108E-03 0.000E+00
     Starting wfcs are  800 randomized atomic wfcs

     Self-consistent Calculation

     iteration #  1     ecut=    30.00 Ry     beta= 0.70
     Davidson diagonalization with overlap
     ethr =  1.00E-02,  avg # of iterations =  2.0

     negative rho (up, down):  1.475E-03 0.000E+00

     total energy              =    -444.11988044 Ry
     Harris-Foulkes estimate   =    -451.48901717 Ry
     estimated scf accuracy    <      10.73742844 Ry

[...]

     negative rho (up, down):  2.527E-06 0.000E+00

[...]

     total energy              =    -448.60100752 Ry
     Harris-Foulkes estimate   =    -448.60110668 Ry
     estimated scf accuracy    <       0.00037712 Ry

     iteration # 12     ecut=    30.00 Ry     beta= 0.70
     Davidson diagonalization with overlap
     ethr =  1.89E-07,  avg # of iterations =  2.3

     End of self-consistent calculation

          k = 0.0000 0.0000 0.0000 ( 48515 PWs)   bands (ev):

   -16.1442 -15.1778 -15.1391 -15.1391 -15.0762 -15.0762 -15.0306 -13.4573
   -13.4277 -13.3022 -13.3022 -13.2707 -13.2707 -13.0715 -13.0715 -13.0714
   -12.1209 -11.0320 -11.0241 -11.0241 -10.9743 -10.9743 -10.9586 -10.1652
   -10.1652 -10.1543  -9.3604  -9.3558  -9.1792  -9.1792  -8.9048  -8.9048
    -8.8604  -8.8603  -8.7692  -8.7579  -7.1569  -7.1568  -7.1530  -7.0955
    -7.0955  -7.0476  -6.8661  -6.8660  -6.8655  -6.8458  -6.7832  -6.7832
    -6.7614  -6.7062  -6.7062  -6.6442  -6.6442  -6.6299  -6.4775  -5.3340
    -5.3040  -5.3040  -5.2357  -5.2357  -5.1989  -5.0087  -5.0087  -5.0009
    -4.7857  -4.7857  -4.3318  -4.3251  -4.3250  -4.2925  -4.2924  -4.2802
    -3.6919  -3.6793  -3.6191  -3.4005  -3.4004  -3.3402  -3.3402  -3.0802
    -3.0802  -3.0443  -2.9259  -2.9259  -2.7484  -2.7319  -2.7319  -2.6466
    -2.5789  -2.5789  -2.1015  -2.1015  -2.0778  -1.9954  -1.9586  -1.9586
    -1.4929  -1.4927  -0.6707  -0.6628  -0.6628  -0.5822  -0.4665  -0.4665
    -0.3946  -0.3280   0.2000   0.2000   0.4087   0.4884   0.4946   0.4946
     1.0481   1.0481   1.1078   1.2724   1.5235   1.5236   1.5523   1.5523

     occupation numbers
     1.0000   1.0000   1.0000   1.0000   1.0000   1.0000   1.0000   1.0000
     1.0000   1.0000   1.0000   1.0000   1.0000   1.0000   1.0000   1.0000
     1.0000   1.0000   1.0000   1.0000   1.0000   1.0000   1.0000   1.0000
     1.0000   1.0000   1.0000   1.0000   1.0000   1.0000   1.0000   1.0000
     1.0000   1.0000   1.0000   1.0000   1.0000   1.0000   1.0000   1.0000
     1.0000   1.0000   1.0000   1.0000   1.0000   1.0000   1.0000   1.0000
     1.0000   1.0000   1.0000   1.0000   1.0000   1.0000   1.0000   1.0000
     1.0000   1.0000   1.0000   1.0000   1.0000   1.0000   1.0000   1.0000
     1.0000   1.0000   1.0000   1.0000   1.0000   1.0000   1.0000   1.0000
     1.0000   1.0000   1.0000   1.0000   1.0000   1.0000   1.0000   1.0000
     1.0000   1.0000   1.0000   1.0000   1.0000   1.0000   1.0000   1.0000
     1.0000   1.0000   1.0000   1.0000   1.0000   1.0000   1.0000   1.0000
     1.0000   1.0000   0.4948   0.4137   0.4136  -0.0322  -0.0011  -0.0011
    -0.0000  -0.0000  -0.0000  -0.0000  -0.0000  -0.0000  -0.0000  -0.0000
    -0.0000  -0.0000  -0.0000  -0.0000  -0.0000  -0.0000  -0.0000  -0.0000

[...]

          k = 0.3333 0.5774 0.0000 ( 48552 PWs)   bands (ev):

   -15.8565 -15.7789 -15.7360 -14.7850 -14.7775 -14.7717 -13.9715 -13.9249
   -13.9098 -13.8297 -13.8181 -13.7818 -12.9368 -12.8399 -12.7874 -12.4843
   -11.7536 -11.7489 -11.6926 -10.6470 -10.6348 -10.6348 -10.0880 -10.0588
   -10.0405  -9.9458  -9.8616  -9.8192  -9.4897  -8.9632  -8.9259  -8.9223
    -8.8610  -8.8400  -8.8173  -8.4315  -8.3874  -8.3347  -7.8967  -7.4945
    -7.4810  -7.4709  -7.0470  -7.0346  -7.0321  -6.4941  -6.4845  -6.4322
    -6.3242  -6.2684  -6.2491  -5.3014  -5.2971  -5.2785  -5.2510  -5.2398
    -5.2316  -5.1797  -5.1792  -5.1778  -4.9583  -4.9569  -4.9476  -4.8564
    -4.8388  -4.8234  -4.7456  -4.7152  -4.7133  -4.2260  -4.2013  -4.1279
    -4.0039  -3.9785  -3.9253  -3.9249  -3.8930  -3.8900  -3.8809  -3.8433
    -3.8249  -3.4870  -3.4739  -3.3948  -2.7461  -2.7386  -2.4925  -2.4708
    -2.4633  -2.4321  -2.3133  -2.3125  -2.2857  -2.0932  -1.6774  -1.6239
    -1.5449  -1.2353  -1.2185  -1.2178  -0.6703  -0.5650  -0.1509  -0.0801
     0.0332   0.3424   0.8397   0.8495   0.8715   0.8760   1.0889   1.2123
     1.2878   1.3143   1.3481   1.3547   1.4787   1.6600   1.6938   1.7045

     occupation numbers
     1.0000   1.0000   1.0000   1.0000   1.0000   1.0000   1.0000   1.0000
     1.0000   1.0000   1.0000   1.0000   1.0000   1.0000   1.0000   1.0000
     1.0000   1.0000   1.0000   1.0000   1.0000   1.0000   1.0000   1.0000
     1.0000   1.0000   1.0000   1.0000   1.0000   1.0000   1.0000   1.0000
     1.0000   1.0000   1.0000   1.0000   1.0000   1.0000   1.0000   1.0000
     1.0000   1.0000   1.0000   1.0000   1.0000   1.0000   1.0000   1.0000
     1.0000   1.0000   1.0000   1.0000   1.0000   1.0000   1.0000   1.0000
     1.0000   1.0000   1.0000   1.0000   1.0000   1.0000   1.0000   1.0000
     1.0000   1.0000   1.0000   1.0000   1.0000   1.0000   1.0000   1.0000
     1.0000   1.0000   1.0000   1.0000   1.0000   1.0000   1.0000   1.0000
     1.0000   1.0000   1.0000   1.0000   1.0000   1.0000   1.0000   1.0000
     1.0000   1.0000   1.0000   1.0000   1.0000   1.0000   1.0000   1.0000
     1.0000   1.0000   1.0000   1.0000   0.4902  -0.0347  -0.0000  -0.0000
    -0.0000  -0.0000  -0.0000  -0.0000  -0.0000  -0.0000  -0.0000  -0.0000
    -0.0000  -0.0000  -0.0000  -0.0000  -0.0000  -0.0000  -0.0000  -0.0000

     the Fermi energy is    -0.6712 ev

!    total energy              =    -448.60099804 Ry
     Harris-Foulkes estimate   =    -448.60106874 Ry
     estimated scf accuracy    <       0.00008674 Ry

     The total energy is the sum of the following terms:

     one-electron contribution =   -3568.30404728 Ry
     hartree contribution      =    1820.66198481 Ry
     xc contribution           =    -136.50125284 Ry
     ewald contribution        =    1436.14384617 Ry
     Dispersion Correction     =      -0.60138715 Ry
     smearing contrib. (-TS)   =      -0.00014175 Ry

     convergence has been achieved in  12 iterations

     Writing output data file Ge+SiC_II_2.8.save/

     General routines

   This run was terminated on:  16:13:45   7Apr2020

   JOB DONE.