     Program PWSCF v.6.8 starts on  8Aug2021 at 17:24:12

     Waiting for input...
     Reading input from standard input

     Current dimensions of program PWSCF are:
     Max number of different atomic species (ntypx) = 10
     Max number of k-points (npk) =  40000
     Max angular momentum in pseudopotentials (lmaxx) =  4

     IMPORTANT: XC functional enforced from input :
     Exchange-correlation= PBE
                           (   1   4   3   4   0   0   0)
     Any further DFT definition will be discarded
     Please, verify this is what you really want

     DFT-D3 Dispersion Correction (3-body terms):
       Reference C6 values for interpolation:

         atom   Coordination number   C6
         C          0.000            98.23
         C          0.987            86.49
         C          1.998            58.72
         C          2.999            51.56
         C          3.984            36.41
         Si         0.000           635.71
         Si         0.951           540.53
         Si         1.944           466.25
         Si         2.941           443.01
         Si         3.868           299.55
         Ge         0.000           727.09
         Ge         0.943           633.70
         Ge         1.945           573.31
         Ge         2.919           459.90
         Ge         3.897           360.58

       Values used:

         atom   Coordination number  R0_AB[au]  C6      C8
         C          3.022            2.750     51.26   1482.57
         Ge         4.210            3.649    360.75  33226.39
         C          3.022            2.750     51.26   1482.57
         Ge         4.210            3.649    360.75  33226.39
         C          3.022            2.750     51.26   1482.57
         Ge         4.210            3.649    360.75  33226.39
         C          3.022            2.750     51.26   1482.57
         Ge         4.210            3.649    360.75  33226.39
         C          3.005            2.750     51.33   1484.42
         Si         3.674            3.583    314.69  22508.77
         C          3.005            2.750     51.33   1484.42
         Si         3.674            3.583    314.69  22508.77
         C          3.005            2.750     51.33   1484.42
         Si         3.674            3.583    314.69  22508.77
         C          3.005            2.750     51.33   1484.42
         Si         3.674            3.583    314.69  22508.77

         Molecular C6 ( Ry / a.u.^6 ) =     41474.98

     Found symmetry operation: I + ( -0.0000  0.5000  0.0000)
     This is a supercell, fractional translations are disabled

     Using Slab Decomposition

     bravais-lattice index     =            4
     lattice parameter (alat)  =      12.0339  a.u.
     unit-cell volume          =    5924.8697 (a.u.)^3
     number of atoms/cell      =           16
     number of atomic types    =            3
     number of electrons       =        64.00
     number of Kohn-Sham states=           38
     kinetic-energy cutoff     =      40.0000  Ry
     charge density cutoff     =     200.0000  Ry
     scf convergence threshold =      1.0E-06
     mixing beta               =       0.7000
     number of iterations used =            8  plain     mixing
     Exchange-correlation= PBE
                           (   1   4   3   4   0   0   0)

     celldm(1)=  12.033852  celldm(2)=   0.000000  celldm(3)=   3.925855
     celldm(4)=   0.000000  celldm(5)=   0.000000  celldm(6)=   0.000000

     crystal axes: (cart. coord. in units of alat)
               a(1) = (   1.000000   0.000000   0.000000 )
               a(2) = (  -0.500000   0.866025   0.000000 )
               a(3) = (   0.000000   0.000000   3.925855 )

     reciprocal axes: (cart. coord. in units 2 pi/alat)
               b(1) = (  1.000000  0.577350 -0.000000 )
               b(2) = (  0.000000  1.154701  0.000000 )
               b(3) = (  0.000000 -0.000000  0.254722 )

     PseudoPot. # 1 for C  read from file:
     ./pseudo/C.pbe-n-rrkjus_psl.1.0.0.UPF
     MD5 check sum: 1fdd950c42eb37d8afe3dd2f8d12311e
     Pseudo is Ultrasoft + core correction, Zval =  4.0
     Generated using &quot;atomic&quot; code by A. Dal Corso  v.6.3MaX
     Using radial grid of 1073 points,  4 beta functions with:
                l(1) =   0
                l(2) =   0
                l(3) =   1
                l(4) =   1
     Q(r) pseudized with 0 coefficients

     PseudoPot. # 2 for Ge read from file:
     ./pseudo/Ge.pbe-n-rrkjus_psl.1.0.0.UPF
     MD5 check sum: a23a7f3f7456476e534e54484b27d8e8
     Pseudo is Ultrasoft + core correction, Zval =  4.0
     Generated using &quot;atomic&quot; code by A. Dal Corso  v.6.3
     Using radial grid of 1207 points,  4 beta functions with:
                l(1) =   0
                l(2) =   0
                l(3) =   1
                l(4) =   1
     Q(r) pseudized with 0 coefficients

     PseudoPot. # 3 for Si read from file:
     ./pseudo/Si.pbe-n-rrkjus_psl.1.0.0.UPF
     MD5 check sum: fa25574f73a70a4139f2adfbefec430c
     Pseudo is Ultrasoft + core correction, Zval =  4.0
     Generated using &quot;atomic&quot; code by A. Dal Corso  v.6.3
     Using radial grid of 1141 points,  6 beta functions with:
                l(1) =   0
                l(2) =   0
                l(3) =   1
                l(4) =   1
                l(5) =   2
                l(6) =   2
     Q(r) pseudized with 0 coefficients

     atomic species   valence    mass     pseudopotential
        C              4.00    12.01070     C ( 1.00)
        Ge             4.00    72.64000     Ge( 1.00)
        Si             4.00    28.08550     Si( 1.00)

     No symmetry found

                                    s                        frac. trans.

      isym =  1     identity

 cryst.   s( 1) = (     1          0          0      )
                  (     0          1          0      )
                  (     0          0          1      )

 cart.    s( 1) = (  1.0000000  0.0000000  0.0000000 )
                  (  0.0000000  1.0000000  0.0000000 )
                  (  0.0000000  0.0000000  1.0000000 )

     point group C_1 (1)
     there are  1 classes
     the character table:

       E
A      1.00

     the symmetry operations in each class and the name of the first element:

     E        1
          identity

   Cartesian axes

     site n.     atom                  positions (alat units)
         1           C   tau(   1) = (   0.1250000   0.0000000   2.2671486  )
         2           Ge  tau(   2) = (  -0.1250000   0.1443376   2.2671486  )
         3           C   tau(   3) = (  -0.1250000   0.4330127   2.2671486  )
         4           Ge  tau(   4) = (  -0.3750000   0.5773503   2.2671486  )
         5           C   tau(   5) = (   0.6250000   0.0000000   2.2671486  )
         6           Ge  tau(   6) = (   0.3750000   0.1443376   2.2671486  )
         7           C   tau(   7) = (   0.3750000   0.4330127   2.2671486  )
         8           Ge  tau(   8) = (   0.1250000   0.5773503   2.2671486  )
         9           C   tau(   9) = (   0.2500000   0.4330127   1.5703419  )
        10           Si  tau(  10) = (   0.2500000   0.7132217   1.5703419  )
        11           C   tau(  11) = (   0.0000000   0.0000000   1.5703419  )
        12           Si  tau(  12) = (   0.0000000   0.2802090   1.5703419  )
        13           C   tau(  13) = (  -0.2500000   0.4330127   1.5703419  )
        14           Si  tau(  14) = (  -0.2500000   0.7132217   1.5703419  )
        15           C   tau(  15) = (   0.5000000   0.0000000   1.5703419  )
        16           Si  tau(  16) = (   0.5000000   0.2802090   1.5703419  )

   Crystallographic axes

     site n.     atom                  positions (cryst. coord.)
         1           C   tau(   1) = (  0.1250000  0.0000000  0.5774917  )
         2           Ge  tau(   2) = ( -0.0416667  0.1666667  0.5774917  )
         3           C   tau(   3) = (  0.1250000  0.5000000  0.5774917  )
         4           Ge  tau(   4) = ( -0.0416667  0.6666667  0.5774917  )
         5           C   tau(   5) = (  0.6250000  0.0000000  0.5774917  )
         6           Ge  tau(   6) = (  0.4583333  0.1666667  0.5774917  )
         7           C   tau(   7) = (  0.6250000  0.5000000  0.5774917  )
         8           Ge  tau(   8) = (  0.4583333  0.6666667  0.5774917  )
         9           C   tau(   9) = (  0.5000000  0.5000000  0.4000000  )
        10           Si  tau(  10) = (  0.6617788  0.8235575  0.4000000  )
        11           C   tau(  11) = (  0.0000000  0.0000000  0.4000000  )
        12           Si  tau(  12) = (  0.1617788  0.3235575  0.4000000  )
        13           C   tau(  13) = ( -0.0000000  0.5000000  0.4000000  )
        14           Si  tau(  14) = (  0.1617788  0.8235575  0.4000000  )
        15           C   tau(  15) = (  0.5000000  0.0000000  0.4000000  )
        16           Si  tau(  16) = (  0.6617788  0.3235575  0.4000000  )

     number of k points=    20  Marzari-Vanderbilt smearing, width (Ry)=  0.0500
                       cart. coord. in units 2pi/alat
        k(    1) = (   0.0000000   0.0000000   0.0000000), wk =   0.0555556
        k(    2) = (   0.0000000   0.1924501   0.0000000), wk =   0.1111111
        k(    3) = (   0.0000000   0.3849002   0.0000000), wk =   0.1111111
        k(    4) = (   0.0000000  -0.5773503   0.0000000), wk =   0.0555556
        k(    5) = (   0.1666667   0.2886751   0.0000000), wk =   0.1111111
        k(    6) = (   0.1666667   0.4811252   0.0000000), wk =   0.1111111
        k(    7) = (   0.3333333   0.5773503   0.0000000), wk =   0.1111111
        k(    8) = (  -0.1666667   0.0962250   0.0000000), wk =   0.1111111
        k(    9) = (   0.1666667   0.0962250   0.0000000), wk =   0.1111111
        k(   10) = (  -0.3333333   0.1924501   0.0000000), wk =   0.1111111
        k(   11) = (   0.3333333   0.1924501   0.0000000), wk =   0.1111111
        k(   12) = (   0.5000000  -0.2886751   0.0000000), wk =   0.0555556
        k(   13) = (  -0.5000000  -0.2886751   0.0000000), wk =   0.0555556
        k(   14) = (  -0.1666667   0.2886751   0.0000000), wk =   0.1111111
        k(   15) = (   0.3333333   0.0000000   0.0000000), wk =   0.1111111
        k(   16) = (  -0.1666667   0.4811252   0.0000000), wk =   0.1111111
        k(   17) = (  -0.3333333   0.3849002   0.0000000), wk =   0.1111111
        k(   18) = (   0.5000000   0.0962250   0.0000000), wk =   0.1111111
        k(   19) = (  -0.3333333  -0.3849002   0.0000000), wk =   0.1111111
        k(   20) = (   0.5000000  -0.0962250   0.0000000), wk =   0.1111111

                       cryst. coord.
        k(    1) = (   0.0000000   0.0000000   0.0000000), wk =   0.0555556
        k(    2) = (   0.0000000   0.1666667   0.0000000), wk =   0.1111111
        k(    3) = (   0.0000000   0.3333333   0.0000000), wk =   0.1111111
        k(    4) = (   0.0000000  -0.5000000   0.0000000), wk =   0.0555556
        k(    5) = (   0.1666667   0.1666667   0.0000000), wk =   0.1111111
        k(    6) = (   0.1666667   0.3333333   0.0000000), wk =   0.1111111
        k(    7) = (   0.3333333   0.3333333   0.0000000), wk =   0.1111111
        k(    8) = (  -0.1666667   0.1666667   0.0000000), wk =   0.1111111
        k(    9) = (   0.1666667   0.0000000   0.0000000), wk =   0.1111111
        k(   10) = (  -0.3333333   0.3333333   0.0000000), wk =   0.1111111
        k(   11) = (   0.3333333   0.0000000   0.0000000), wk =   0.1111111
        k(   12) = (   0.5000000  -0.5000000   0.0000000), wk =   0.0555556
        k(   13) = (  -0.5000000   0.0000000   0.0000000), wk =   0.0555556
        k(   14) = (  -0.1666667   0.3333333   0.0000000), wk =   0.1111111
        k(   15) = (   0.3333333  -0.1666667   0.0000000), wk =   0.1111111
        k(   16) = (  -0.1666667   0.5000000   0.0000000), wk =   0.1111111
        k(   17) = (  -0.3333333   0.5000000   0.0000000), wk =   0.1111111
        k(   18) = (   0.5000000  -0.1666667   0.0000000), wk =   0.1111111
        k(   19) = (  -0.3333333  -0.1666667   0.0000000), wk =   0.1111111
        k(   20) = (   0.5000000  -0.3333333   0.0000000), wk =   0.1111111

     Check: negative core charge=   -0.000010

     Initial potential from superposition of free atoms

     starting charge   63.99436, renormalised to   64.00000

     negative rho (up, down):  4.386E-04 0.000E+00
     Starting wfcs are   64 randomized atomic wfcs

     Self-consistent Calculation

     iteration #  1     ecut=    40.00 Ry     beta= 0.70
     Davidson diagonalization with overlap

     ethr =  1.00E-02,  avg # of iterations =  2.8

     negative rho (up, down):  7.244E-04 0.000E+00

     WARNING: integrated charge=    64.00002203, expected=    64.00000000

     total energy              =    -189.45069069 Ry
     estimated scf accuracy    <       4.88690244 Ry

[...]

     WARNING: integrated charge=    64.00001397, expected=    64.00000000

[...]

     ethr =  6.39E-03,  avg # of iterations =  2.0
     Minimization algorithm failed to find Fermi energy: reverting to bisection
     Possible cause: smearing is larger than the electronic band-gap.

[...]

     ethr =  9.67E-05,  avg # of iterations =  9.2

[...]

     total energy              =    -191.51100118 Ry
     estimated scf accuracy    <       0.00000117 Ry

     iteration # 12     ecut=    40.00 Ry     beta= 0.70
     Davidson diagonalization with overlap

     ethr =  1.82E-09,  avg # of iterations =  2.7
     Minimization algorithm failed to find Fermi energy: reverting to bisection
     Possible cause: smearing is larger than the electronic band-gap.

     negative rho (up, down):  7.898E-04 0.000E+00

     End of self-consistent calculation

          k = 0.0000 0.0000 0.0000 ( 25259 PWs)   bands (ev):

   -16.3461 -15.5218 -13.2188 -13.2184 -13.2181 -12.8395 -12.8392 -12.7275
   -10.7996 -10.7985 -10.7983 -10.0996  -9.8139  -9.8134  -6.0928  -5.5532
    -5.2032  -5.2031  -5.2027  -5.1412  -5.1411  -4.9083  -3.8639  -3.3556
    -3.1965  -3.1962  -3.0244  -2.9282  -2.9122  -2.8444  -2.7170  -2.6586
    -0.1685   0.1123   0.1432   0.4626   0.5281   0.5297

     occupation numbers
     1.0000   1.0000   1.0000   1.0000   1.0000   1.0000   1.0000   1.0000
     1.0000   1.0000   1.0000   1.0000   1.0000   1.0000   1.0000   1.0000
     1.0000   1.0000   1.0000   1.0000   1.0000   1.0000   1.0045   1.0424
     1.0641   1.0641   1.0817   1.0825   1.0817   1.0743   1.0404   1.0147
     0.0000   0.0000   0.0000   0.0000   0.0000   0.0000

[...]

          k =-0.1667 0.0962 0.0000 ( 25283 PWs)   bands (ev):

[...]

          k =-0.3333-0.3849 0.0000 ( 25336 PWs)   bands (ev):

[...]

          k = 0.5000-0.0962 0.0000 ( 25336 PWs)   bands (ev):

   -15.5564 -14.9006 -14.7930 -14.2706 -14.1942 -13.6333 -12.7757 -12.4308
   -10.4240  -9.5448  -8.7497  -8.2267  -7.8831  -7.5142  -7.4664  -7.0841
    -6.2881  -6.0650  -5.9632  -5.8315  -5.2640  -4.9964  -4.9632  -4.7795
    -4.6796  -4.5859  -4.4102  -4.1477  -3.9516  -3.5457  -2.5068  -2.2568
     0.0992   0.4799   1.5619   1.7089   1.8557   1.8804

     occupation numbers
     1.0000   1.0000   1.0000   1.0000   1.0000   1.0000   1.0000   1.0000
     1.0000   1.0000   1.0000   1.0000   1.0000   1.0000   1.0000   1.0000
     1.0000   1.0000   1.0000   1.0000   1.0000   1.0000   1.0000   1.0000
     1.0000   1.0000   1.0001   1.0007   1.0027   1.0214   0.9166   0.6741
     0.0000   0.0000   0.0000   0.0000   0.0000   0.0000

     the Fermi energy is    -2.0040 ev

!    total energy              =    -191.51100063 Ry
     estimated scf accuracy    <       0.00000085 Ry
     smearing contrib. (-TS)   =       0.03960774 Ry
     internal energy E=F+TS    =    -191.55060837 Ry

     The total energy is F=E-TS. E is the sum of the following terms:
     one-electron contribution =   -1560.75114478 Ry
     hartree contribution      =     793.77128059 Ry
     xc contribution           =     -87.78400262 Ry
     ewald contribution        =     663.28843608 Ry
     DFT-D3 Dispersion         =      -0.07517764 Ry

     convergence has been achieved in  12 iterations

     Writing output data file ./work/sic_gec_22.save/

     General routines

   This run was terminated on:  17:52:58   8Aug2021

   JOB DONE.