     Program PWSCF v.6.8 starts on  8Aug2021 at 17: 9:42

     Waiting for input...
     Reading input from standard input

     Current dimensions of program PWSCF are:
     Max number of different atomic species (ntypx) = 10
     Max number of k-points (npk) =  40000
     Max angular momentum in pseudopotentials (lmaxx) =  4

     IMPORTANT: XC functional enforced from input :
     Exchange-correlation= PBE
                           (   1   4   3   4   0   0   0)
     Any further DFT definition will be discarded
     Please, verify this is what you really want

     DFT-D3 Dispersion Correction (3-body terms):
       Reference C6 values for interpolation:

         atom   Coordination number   C6
         C          0.000            98.23
         C          0.987            86.49
         C          1.998            58.72
         C          2.999            51.56
         C          3.984            36.41
         Si         0.000           635.71
         Si         0.951           540.53
         Si         1.944           466.25
         Si         2.941           443.01
         Si         3.868           299.55
         Ge         0.000           727.09
         Ge         0.943           633.70
         Ge         1.945           573.31
         Ge         2.919           459.90
         Ge         3.897           360.58

       Values used:

         atom   Coordination number  R0_AB[au]  C6      C8
         C          3.021            2.750     51.27   1482.68
         Ge         4.210            3.649    360.75  33226.40
         C          3.021            2.750     51.27   1482.68
         Ge         4.210            3.649    360.75  33226.40
         C          3.021            2.750     51.27   1482.68
         Ge         4.210            3.649    360.75  33226.40
         C          3.021            2.750     51.27   1482.68
         Ge         4.210            3.649    360.75  33226.40
         C          3.005            2.750     51.32   1484.40
         Si         3.675            3.583    314.59  22501.37
         C          3.005            2.750     51.32   1484.40
         Si         3.675            3.583    314.59  22501.37
         C          3.005            2.750     51.32   1484.40
         Si         3.675            3.583    314.59  22501.37
         C          3.005            2.750     51.32   1484.40
         Si         3.675            3.583    314.59  22501.37

         Molecular C6 ( Ry / a.u.^6 ) =     41470.83

     Found symmetry operation: I + ( -0.0000  0.5000  0.0000)
     This is a supercell, fractional translations are disabled

     Using Slab Decomposition

     bravais-lattice index     =            4
     lattice parameter (alat)  =      12.0339  a.u.
     unit-cell volume          =    5924.8697 (a.u.)^3
     number of atoms/cell      =           16
     number of atomic types    =            3
     number of electrons       =        64.00
     number of Kohn-Sham states=           38
     kinetic-energy cutoff     =      40.0000  Ry
     charge density cutoff     =     200.0000  Ry
     scf convergence threshold =      1.0E-06
     mixing beta               =       0.7000
     number of iterations used =            8  plain     mixing
     Exchange-correlation= PBE
                           (   1   4   3   4   0   0   0)

     celldm(1)=  12.033852  celldm(2)=   0.000000  celldm(3)=   3.925855
     celldm(4)=   0.000000  celldm(5)=   0.000000  celldm(6)=   0.000000

     crystal axes: (cart. coord. in units of alat)
               a(1) = (   1.000000   0.000000   0.000000 )
               a(2) = (  -0.500000   0.866025   0.000000 )
               a(3) = (   0.000000   0.000000   3.925855 )

     reciprocal axes: (cart. coord. in units 2 pi/alat)
               b(1) = (  1.000000  0.577350 -0.000000 )
               b(2) = (  0.000000  1.154701  0.000000 )
               b(3) = (  0.000000 -0.000000  0.254722 )

     PseudoPot. # 1 for C  read from file:
     ./pseudo/C.pbe-n-rrkjus_psl.1.0.0.UPF
     MD5 check sum: 1fdd950c42eb37d8afe3dd2f8d12311e
     Pseudo is Ultrasoft + core correction, Zval =  4.0
     Generated using &quot;atomic&quot; code by A. Dal Corso  v.6.3MaX
     Using radial grid of 1073 points,  4 beta functions with:
                l(1) =   0
                l(2) =   0
                l(3) =   1
                l(4) =   1
     Q(r) pseudized with 0 coefficients

     PseudoPot. # 2 for Ge read from file:
     ./pseudo/Ge.pbe-n-rrkjus_psl.1.0.0.UPF
     MD5 check sum: a23a7f3f7456476e534e54484b27d8e8
     Pseudo is Ultrasoft + core correction, Zval =  4.0
     Generated using &quot;atomic&quot; code by A. Dal Corso  v.6.3
     Using radial grid of 1207 points,  4 beta functions with:
                l(1) =   0
                l(2) =   0
                l(3) =   1
                l(4) =   1
     Q(r) pseudized with 0 coefficients

     PseudoPot. # 3 for Si read from file:
     ./pseudo/Si.pbe-n-rrkjus_psl.1.0.0.UPF
     MD5 check sum: fa25574f73a70a4139f2adfbefec430c
     Pseudo is Ultrasoft + core correction, Zval =  4.0
     Generated using &quot;atomic&quot; code by A. Dal Corso  v.6.3
     Using radial grid of 1141 points,  6 beta functions with:
                l(1) =   0
                l(2) =   0
                l(3) =   1
                l(4) =   1
                l(5) =   2
                l(6) =   2
     Q(r) pseudized with 0 coefficients

     atomic species   valence    mass     pseudopotential
        C              4.00    12.01070     C ( 1.00)
        Ge             4.00    72.64000     Ge( 1.00)
        Si             4.00    28.08550     Si( 1.00)

      2 Sym. Ops. (no inversion) found

                                    s                        frac. trans.

      isym =  1     identity

 cryst.   s( 1) = (     1          0          0      )
                  (     0          1          0      )
                  (     0          0          1      )

 cart.    s( 1) = (  1.0000000  0.0000000  0.0000000 )
                  (  0.0000000  1.0000000  0.0000000 )
                  (  0.0000000  0.0000000  1.0000000 )

      isym =  2     inv. 180 deg rotation - cart. axis [1,0,0]

 cryst.   s( 2) = (    -1          0          0      )
                  (     1          1          0      )
                  (     0          0          1      )

 cart.    s( 2) = ( -1.0000000  0.0000000  0.0000000 )
                  (  0.0000000  1.0000000  0.0000000 )
                  (  0.0000000  0.0000000  1.0000000 )

     point group C_s (m)
     there are  2 classes
     the character table:

       E     s
A'     1.00  1.00
A''    1.00 -1.00

     the symmetry operations in each class and the name of the first element:

     E        1
          identity
     s        2
          inv. 180 deg rotation - cart. axis [1,0,0]

   Cartesian axes

     site n.     atom                  positions (alat units)
         1           C   tau(   1) = (   0.0000000   0.0000000   2.2588036  )
         2           Ge  tau(   2) = (   0.0000000   0.2802090   2.2588036  )
         3           C   tau(   3) = (  -0.2500000   0.4330127   2.2588036  )
         4           Ge  tau(   4) = (  -0.2500000   0.7132217   2.2588036  )
         5           C   tau(   5) = (   0.5000000   0.0000000   2.2588036  )
         6           Ge  tau(   6) = (   0.5000000   0.2802090   2.2588036  )
         7           C   tau(   7) = (   0.2500000   0.4330127   2.2588036  )
         8           Ge  tau(   8) = (   0.2500000   0.7132217   2.2588036  )
         9           C   tau(   9) = (   0.2500000   0.4330127   1.5703419  )
        10           Si  tau(  10) = (   0.2500000   0.7132217   1.5703419  )
        11           C   tau(  11) = (   0.0000000   0.0000000   1.5703419  )
        12           Si  tau(  12) = (   0.0000000   0.2802090   1.5703419  )
        13           C   tau(  13) = (  -0.2500000   0.4330127   1.5703419  )
        14           Si  tau(  14) = (  -0.2500000   0.7132217   1.5703419  )
        15           C   tau(  15) = (   0.5000000   0.0000000   1.5703419  )
        16           Si  tau(  16) = (   0.5000000   0.2802090   1.5703419  )

   Crystallographic axes

     site n.     atom                  positions (cryst. coord.)
         1           C   tau(   1) = (  0.0000000  0.0000000  0.5753661  )
         2           Ge  tau(   2) = (  0.1617788  0.3235575  0.5753661  )
         3           C   tau(   3) = ( -0.0000000  0.5000000  0.5753661  )
         4           Ge  tau(   4) = (  0.1617788  0.8235575  0.5753661  )
         5           C   tau(   5) = (  0.5000000  0.0000000  0.5753661  )
         6           Ge  tau(   6) = (  0.6617788  0.3235575  0.5753661  )
         7           C   tau(   7) = (  0.5000000  0.5000000  0.5753661  )
         8           Ge  tau(   8) = (  0.6617788  0.8235575  0.5753661  )
         9           C   tau(   9) = (  0.5000000  0.5000000  0.4000000  )
        10           Si  tau(  10) = (  0.6617788  0.8235575  0.4000000  )
        11           C   tau(  11) = (  0.0000000  0.0000000  0.4000000  )
        12           Si  tau(  12) = (  0.1617788  0.3235575  0.4000000  )
        13           C   tau(  13) = ( -0.0000000  0.5000000  0.4000000  )
        14           Si  tau(  14) = (  0.1617788  0.8235575  0.4000000  )
        15           C   tau(  15) = (  0.5000000  0.0000000  0.4000000  )
        16           Si  tau(  16) = (  0.6617788  0.3235575  0.4000000  )

     number of k points=    13  Marzari-Vanderbilt smearing, width (Ry)=  0.0500
                       cart. coord. in units 2pi/alat
        k(    1) = (   0.0000000   0.0000000   0.0000000), wk =   0.0555556
        k(    2) = (   0.0000000   0.1924501   0.0000000), wk =   0.1111111
        k(    3) = (   0.0000000   0.3849002   0.0000000), wk =   0.1111111
        k(    4) = (   0.0000000  -0.5773503   0.0000000), wk =   0.0555556
        k(    5) = (   0.1666667   0.2886751   0.0000000), wk =   0.2222222
        k(    6) = (   0.1666667   0.4811252   0.0000000), wk =   0.2222222
        k(    7) = (   0.3333333   0.5773503   0.0000000), wk =   0.1111111
        k(    8) = (  -0.1666667   0.0962250   0.0000000), wk =   0.2222222
        k(    9) = (  -0.3333333   0.1924501   0.0000000), wk =   0.2222222
        k(   10) = (   0.5000000  -0.2886751   0.0000000), wk =   0.1111111
        k(   11) = (   0.3333333   0.0000000   0.0000000), wk =   0.1111111
        k(   12) = (  -0.3333333   0.3849002   0.0000000), wk =   0.2222222
        k(   13) = (   0.5000000   0.0962250   0.0000000), wk =   0.2222222

                       cryst. coord.
        k(    1) = (   0.0000000   0.0000000   0.0000000), wk =   0.0555556
        k(    2) = (   0.0000000   0.1666667   0.0000000), wk =   0.1111111
        k(    3) = (   0.0000000   0.3333333   0.0000000), wk =   0.1111111
        k(    4) = (   0.0000000  -0.5000000   0.0000000), wk =   0.0555556
        k(    5) = (   0.1666667   0.1666667   0.0000000), wk =   0.2222222
        k(    6) = (   0.1666667   0.3333333   0.0000000), wk =   0.2222222
        k(    7) = (   0.3333333   0.3333333   0.0000000), wk =   0.1111111
        k(    8) = (  -0.1666667   0.1666667   0.0000000), wk =   0.2222222
        k(    9) = (  -0.3333333   0.3333333   0.0000000), wk =   0.2222222
        k(   10) = (   0.5000000  -0.5000000   0.0000000), wk =   0.1111111
        k(   11) = (   0.3333333  -0.1666667   0.0000000), wk =   0.1111111
        k(   12) = (  -0.3333333   0.5000000   0.0000000), wk =   0.2222222
        k(   13) = (   0.5000000  -0.1666667   0.0000000), wk =   0.2222222

     Check: negative core charge=   -0.000010

     Initial potential from superposition of free atoms

     starting charge   63.99436, renormalised to   64.00000

     negative rho (up, down):  4.281E-04 0.000E+00
     Starting wfcs are   64 randomized atomic wfcs

     Self-consistent Calculation

     iteration #  1     ecut=    40.00 Ry     beta= 0.70
     Davidson diagonalization with overlap

     ethr =  1.00E-02,  avg # of iterations =  2.9

     negative rho (up, down):  6.928E-04 0.000E+00

     WARNING: integrated charge=    64.00003258, expected=    64.00000000

     total energy              =    -189.42896917 Ry
     estimated scf accuracy    <       4.89746341 Ry

[...]

     ethr =  6.44E-03,  avg # of iterations =  2.0
     Minimization algorithm failed to find Fermi energy: reverting to bisection
     Possible cause: smearing is larger than the electronic band-gap.

[...]

     WARNING: integrated charge=    64.00000730, expected=    64.00000000

[...]

     ethr =  1.01E-04,  avg # of iterations = 11.0

[...]

     total energy              =    -191.49456807 Ry
     estimated scf accuracy    <       0.00000115 Ry

     iteration # 12     ecut=    40.00 Ry     beta= 0.70
     Davidson diagonalization with overlap

     ethr =  1.80E-09,  avg # of iterations =  2.2
     Minimization algorithm failed to find Fermi energy: reverting to bisection
     Possible cause: smearing is larger than the electronic band-gap.

     negative rho (up, down):  7.551E-04 0.000E+00

     End of self-consistent calculation

          k = 0.0000 0.0000 0.0000 ( 25259 PWs)   bands (ev):

   -16.3464 -15.5257 -13.2909 -13.2907 -13.0959 -12.8427 -12.8426 -12.7311
   -11.0645 -10.6537 -10.6536 -10.1039  -9.8181  -9.8181  -6.1118  -5.5391
    -5.2586  -5.2586  -5.1449  -5.1449  -5.0546  -4.9120  -3.8676  -3.4839
    -3.3598  -3.0728  -3.0727  -2.8966  -2.8921  -2.7398  -2.7397  -2.5637
    -0.2837   0.0365   0.0365   0.4055   0.4517   0.7439

     occupation numbers
     1.0000   1.0000   1.0000   1.0000   1.0000   1.0000   1.0000   1.0000
     1.0000   1.0000   1.0000   1.0000   1.0000   1.0000   1.0000   1.0000
     1.0000   1.0000   1.0000   1.0000   1.0000   1.0000   1.0039   1.0253
     1.0393   1.0764   1.0764   1.0819   1.0817   1.0549   1.0549   0.9718
     0.0000   0.0000   0.0000   0.0000   0.0000   0.0000

[...]

          k =-0.1667 0.0962 0.0000 ( 25283 PWs)   bands (ev):

[...]

          k =-0.3333 0.3849 0.0000 ( 25336 PWs)   bands (ev):

[...]

          k = 0.5000 0.0962 0.0000 ( 25336 PWs)   bands (ev):

   -15.5639 -14.9061 -14.7969 -14.2715 -14.1981 -13.6371 -12.7266 -12.4342
   -10.5772  -9.5492  -8.7881  -8.2308  -7.8647  -7.4702  -7.3986  -7.0874
    -6.0902  -6.0091  -5.9660  -5.8347  -5.2919  -4.9921  -4.9653  -4.7685
    -4.6840  -4.6132  -4.6080  -4.1304  -3.9691  -3.5293  -2.5022  -2.2046
    -0.0757   0.5521   1.5138   1.5487   1.8097   2.0459

     occupation numbers
     1.0000   1.0000   1.0000   1.0000   1.0000   1.0000   1.0000   1.0000
     1.0000   1.0000   1.0000   1.0000   1.0000   1.0000   1.0000   1.0000
     1.0000   1.0000   1.0000   1.0000   1.0000   1.0000   1.0000   1.0000
     1.0000   1.0000   1.0000   1.0007   1.0021   1.0211   0.9284   0.6384
     0.0000   0.0000   0.0000   0.0000   0.0000   0.0000

     the Fermi energy is    -1.9842 ev

!    total energy              =    -191.49456779 Ry
     estimated scf accuracy    <       0.00000055 Ry
     smearing contrib. (-TS)   =       0.03918927 Ry
     internal energy E=F+TS    =    -191.53375706 Ry

     The total energy is F=E-TS. E is the sum of the following terms:
     one-electron contribution =   -1574.12802383 Ry
     hartree contribution      =     800.46395433 Ry
     xc contribution           =     -87.79389106 Ry
     ewald contribution        =     670.00022176 Ry
     DFT-D3 Dispersion         =      -0.07601826 Ry

     convergence has been achieved in  12 iterations

     Writing output data file ./work/sic_gec_21.save/

     General routines

   This run was terminated on:  17:24:12   8Aug2021

   JOB DONE.