     Program PWSCF v.6.3 starts on 19Apr2020 at 17: 3: 7

     Waiting for input...
     Reading input from standard input

     Current dimensions of program PWSCF are:
     Max number of different atomic species (ntypx) = 10
     Max number of k-points (npk) =  40000
     Max angular momentum in pseudopotentials (lmaxx) =  3

     IMPORTANT: XC functional enforced from input :
     Exchange-correlation      = HSE ( 1  4 12  4 0 0)
     EXX-fraction              =        0.25
     Any further DFT definition will be discarded
     Please, verify this is what you really want

               file Ge.pbe-mt_fhi.UPF: wavefunction(s)  4d 4f renormalized
               file C.pbe-mt_fhi.UPF: wavefunction(s)  4f renormalized
               file Si.pbe-mt_fhi.UPF: wavefunction(s)  4f renormalized

     Parameters for Dispersion (Grimme-D2) Correction:
       atom      VdW radius       C_6

        Ge         3.264        593.221
        C          2.744         60.710
        Si         3.243        320.200

     Subspace diagonalization in iterative solution of the eigenvalue problem:
     a serial algorithm will be used

     EXX: setup a grid of 3 q-points centered on each k-point
     (k+q)-points:
   0.0000000   0.0000000   0.0000000         1    1
   0.0000000   0.3849002   0.0000000         2    1
   0.3333333   0.5773503   0.0000000         3    1

     bravais-lattice index     =            4
     lattice parameter (alat)  =      23.1302  a.u.
     unit-cell volume          =   17511.3678 (a.u.)^3
     number of atoms/cell      =           50
     number of atomic types    =            3
     number of electrons       =       200.00
     number of Kohn-Sham states=          124
     kinetic-energy cutoff     =      30.0000  Ry
     charge density cutoff     =     120.0000  Ry
     cutoff for Fock operator  =     120.0000  Ry
     convergence threshold     =      1.0E-04
     mixing beta               =       0.7000
     number of iterations used =            8  plain     mixing
     Exchange-correlation      = HSE ( 1  4 12  4 0 0)
     EXX-fraction              =        0.25

     celldm(1)=  23.130248  celldm(2)=   0.000000  celldm(3)=   1.633987
     celldm(4)=   0.000000  celldm(5)=   0.000000  celldm(6)=   0.000000

     crystal axes: (cart. coord. in units of alat)
               a(1) = (   1.000000   0.000000   0.000000 )
               a(2) = (  -0.500000   0.866025   0.000000 )
               a(3) = (   0.000000   0.000000   1.633987 )

     reciprocal axes: (cart. coord. in units 2 pi/alat)
               b(1) = (  1.000000  0.577350 -0.000000 )
               b(2) = (  0.000000  1.154701  0.000000 )
               b(3) = (  0.000000 -0.000000  0.612000 )

     PseudoPot. # 1 for Ge read from file:
     ./pseudo/Ge.pbe-mt_fhi.UPF
     MD5 check sum: b08ff19c3d362044f6e29226b459d86a
     Pseudo is Norm-conserving, Zval =  4.0
     Generated using FHI98PP, converted with fhi2upf.x v.5.0.2
     Using radial grid of  529 points,  3 beta functions with:
                l(1) =   1
                l(2) =   2
                l(3) =   3

     PseudoPot. # 2 for C  read from file:
     ./pseudo/C.pbe-mt_fhi.UPF
     MD5 check sum: 058ca341f9d6d5327d9962fd88a91b65
     Pseudo is Norm-conserving, Zval =  4.0
     Generated using FHI98PP, converted with fhi2upf.x v.5.0.2
     Using radial grid of  461 points,  3 beta functions with:
                l(1) =   0
                l(2) =   1
                l(3) =   3

     PseudoPot. # 3 for Si read from file:
     ./pseudo/Si.pbe-mt_fhi.UPF
     MD5 check sum: 259057c2adf9952f9ced37ae3d9e311d
     Pseudo is Norm-conserving, Zval =  4.0
     Generated using FHI98PP, converted with fhi2upf.x v.5.0.2
     Using radial grid of  495 points,  3 beta functions with:
                l(1) =   0
                l(2) =   1
                l(3) =   3

     atomic species   valence    mass     pseudopotential
        Ge             4.00    72.59000     Ge( 1.00)
        C              4.00    12.01070     C ( 1.00)
        Si             4.00    28.08550     Si( 1.00)

      6 Sym. Ops. (no inversion) found

   Cartesian axes

     site n.     atom                  positions (alat units)
         1           Ge  tau(   1) = (   0.0000000   0.0000000   0.2634804  )
         2           Ge  tau(   2) = (   0.0000000   0.1924510   0.3183824  )
         3           Ge  tau(   3) = (  -0.1666667   0.2886751   0.2634804  )
         4           Ge  tau(   4) = (  -0.1666667   0.4811261   0.3183824  )
         5           Ge  tau(   5) = (  -0.3333333   0.5773503   0.2634804  )
         6           Ge  tau(   6) = (  -0.3333333   0.7698012   0.3183824  )
         7           Ge  tau(   7) = (   0.3333333   0.0000000   0.2634804  )
         8           Ge  tau(   8) = (   0.3333333   0.1924510   0.3183824  )
         9           Ge  tau(   9) = (   0.1666667   0.2886751   0.2634804  )
        10           Ge  tau(  10) = (   0.1666667   0.4811261   0.3183824  )
        11           Ge  tau(  11) = (   0.0000000   0.5773503   0.2634804  )
        12           Ge  tau(  12) = (   0.0000000   0.7698012   0.3183824  )
        13           Ge  tau(  13) = (   0.6666667   0.0000000   0.2634804  )
        14           Ge  tau(  14) = (   0.6666667   0.1924510   0.3183824  )
        15           Ge  tau(  15) = (   0.5000000   0.2886751   0.2634804  )
        16           Ge  tau(  16) = (   0.5000000   0.4811261   0.3183824  )
        17           Ge  tau(  17) = (   0.3333333   0.5773503   0.2634804  )
        18           Ge  tau(  18) = (   0.3333333   0.7698012   0.3183824  )
        19           C   tau(  19) = (   0.0000000   0.0000000   0.0000000  )
        20           Si  tau(  20) = (   0.0000000   0.1443382   0.0000000  )
        21           C   tau(  21) = (  -0.1250000   0.2165064   0.0000000  )
        22           Si  tau(  22) = (  -0.1250000   0.3608446   0.0000000  )
        23           C   tau(  23) = (  -0.2500000   0.4330127   0.0000000  )
        24           Si  tau(  24) = (  -0.2500000   0.5773509   0.0000000  )
        25           C   tau(  25) = (  -0.3750000   0.6495191   0.0000000  )
        26           Si  tau(  26) = (  -0.3750000   0.7938573   0.0000000  )
        27           C   tau(  27) = (   0.2500000   0.0000000   0.0000000  )
        28           Si  tau(  28) = (   0.2500000   0.1443382   0.0000000  )
        29           C   tau(  29) = (   0.1250000   0.2165064   0.0000000  )
        30           Si  tau(  30) = (   0.1250000   0.3608446   0.0000000  )
        31           C   tau(  31) = (   0.0000000   0.4330127   0.0000000  )
        32           Si  tau(  32) = (   0.0000000   0.5773509   0.0000000  )
        33           C   tau(  33) = (  -0.1250000   0.6495191   0.0000000  )
        34           Si  tau(  34) = (  -0.1250000   0.7938573   0.0000000  )
        35           C   tau(  35) = (   0.5000000   0.0000000   0.0000000  )
        36           Si  tau(  36) = (   0.5000000   0.1443382   0.0000000  )
        37           C   tau(  37) = (   0.3750000   0.2165064   0.0000000  )
        38           Si  tau(  38) = (   0.3750000   0.3608446   0.0000000  )
        39           C   tau(  39) = (   0.2500000   0.4330127   0.0000000  )
        40           Si  tau(  40) = (   0.2500000   0.5773509   0.0000000  )
        41           C   tau(  41) = (   0.1250000   0.6495191   0.0000000  )
        42           Si  tau(  42) = (   0.1250000   0.7938573   0.0000000  )
        43           C   tau(  43) = (   0.7500000   0.0000000   0.0000000  )
        44           Si  tau(  44) = (   0.7500000   0.1443382   0.0000000  )
        45           C   tau(  45) = (   0.6250000   0.2165064   0.0000000  )
        46           Si  tau(  46) = (   0.6250000   0.3608446   0.0000000  )
        47           C   tau(  47) = (   0.5000000   0.4330127   0.0000000  )
        48           Si  tau(  48) = (   0.5000000   0.5773509   0.0000000  )
        49           C   tau(  49) = (   0.3750000   0.6495191   0.0000000  )
        50           Si  tau(  50) = (   0.3750000   0.7938573   0.0000000  )

     number of k points=     3
                       cart. coord. in units 2pi/alat
        k(    1) = (   0.0000000   0.0000000   0.0000000), wk =   0.2222222
        k(    2) = (   0.0000000   0.3849002   0.0000000), wk =   1.3333333
        k(    3) = (   0.3333333   0.5773503   0.0000000), wk =   0.4444444

     Initial potential from superposition of free atoms
     Check: negative starting charge=   -0.006709

     starting charge  199.97158, renormalised to  200.00000

     negative rho (up, down):  6.710E-03 0.000E+00
     Starting wfcs are  800 randomized atomic wfcs

     Self-consistent Calculation

     iteration #  1     ecut=    30.00 Ry     beta= 0.70
     Davidson diagonalization with overlap
     ethr =  1.00E-02,  avg # of iterations =  2.0

     negative rho (up, down):  1.400E-03 0.000E+00

     total energy              =    -444.59947345 Ry
     Harris-Foulkes estimate   =    -451.60394140 Ry
     estimated scf accuracy    <      10.39186230 Ry

[...]

     negative rho (up, down):  6.259E-07 0.000E+00

[...]

     End of self-consistent calculation

          k = 0.0000 0.0000 0.0000 ( 48515 PWs)   bands (ev):

   -15.9168 -14.9248 -14.9044 -14.9044 -14.8698 -14.8698 -14.8513 -13.1738
   -13.1612 -13.1083 -13.1083 -13.0971 -13.0971 -12.8873 -12.8873 -12.8830
   -12.0243 -10.9123 -10.9021 -10.9021 -10.8855 -10.8855 -10.8744  -9.9505
    -9.9505  -9.9478  -9.1398  -9.1385  -9.0529  -9.0529  -8.7092  -8.7092
    -8.7002  -8.7002  -8.6681  -8.6639  -6.9410  -6.9364  -6.9364  -6.9292
    -6.9291  -6.9176  -6.7044  -6.7043  -6.6787  -6.6679  -6.6679  -6.6576
    -6.5350  -6.5062  -6.5062  -6.4804  -6.4804  -6.4701  -6.1628  -4.9959
    -4.9749  -4.9749  -4.9395  -4.9395  -4.9204  -4.8130  -4.8130  -4.8123
    -4.5891  -4.5891  -4.1419  -4.1379  -4.1378  -4.1224  -4.1224  -4.1146
    -3.9680  -3.2365  -3.2303  -3.2280  -3.2279  -3.0122  -3.0122  -2.8612
    -2.8611  -2.8026  -2.7921  -2.7921  -2.6115  -2.6104  -2.6103  -2.5793
    -2.5600  -2.5599  -2.3460  -2.3460  -2.3366  -2.2768  -2.2627  -2.2627
    -1.3980  -1.3979  -0.7361  -0.7361  -0.6384  -0.6069  -0.5963  -0.1250
    -0.1250  -0.1043   0.3595   0.3595   0.4154   0.6233   0.6849   0.6849
     1.0989   1.0989   1.1184   1.1959   1.4586   1.4586   1.5818   1.5824
     1.5824   1.6664   1.7865   1.7865

[...]

     highest occupied, lowest unoccupied level (ev):    -0.7361   -0.6384

!    total energy              =    -448.67682669 Ry
     Harris-Foulkes estimate   =    -448.67684982 Ry
     estimated scf accuracy    <       0.00002990 Ry

     convergence has been achieved in  12 iterations

     Using ACE for calculation of exact exchange

     EXX: now go back to refine exchange calculation

[...]

     total energy              =    -448.46292028 Ry
     Harris-Foulkes estimate   =    -448.46296231 Ry
     est. exchange err (dexx)  =       0.00450977 Ry
     - averaged Fock potential =      48.74672289 Ry
     + Fock energy (ACE)       =     -24.40438958 Ry

[...]

     total energy              =    -448.46377206 Ry
     Harris-Foulkes estimate   =    -448.46380935 Ry
     est. exchange err (dexx)  =       0.00013741 Ry
     - averaged Fock potential =      48.81900966 Ry
     + Fock energy (ACE)       =     -24.41475748 Ry

     EXX: now go back to refine exchange calculation

     Self-consistent Calculation

[...]

     total energy              =    -448.46337507 Ry
     Harris-Foulkes estimate   =    -448.46435797 Ry
     estimated scf accuracy    <       0.00292430 Ry

     iteration #  3     ecut=    30.00 Ry     beta= 0.70
     Davidson diagonalization with overlap
     ethr =  2.25E-07,  avg # of iterations =  3.0

     End of self-consistent calculation

[...]

          k = 0.3333 0.5774 0.0000 ( 48552 PWs)   bands (ev):

   -17.6477 -17.5960 -17.5849 -16.5119 -16.5098 -16.5085 -15.5860 -15.5617
   -15.5591 -15.5186 -15.5166 -15.4966 -14.5279 -14.4698 -14.4570 -14.0992
   -13.1310 -13.1222 -13.0996 -11.8806 -11.8762 -11.8761 -11.2501 -11.2322
   -11.2291 -10.9972 -10.9682 -10.9413 -10.5065  -9.9595  -9.9509  -9.9391
    -9.9222  -9.9077  -9.9017  -9.4085  -9.4016  -9.3856  -8.8864  -8.3470
    -8.3442  -8.3392  -7.9140  -7.9120  -7.9116  -7.2675  -7.2554  -7.2337
    -6.8215  -6.7742  -6.7689  -5.9671  -5.9643  -5.9502  -5.9321  -5.9198
    -5.9165  -5.8602  -5.8601  -5.8562  -5.5224  -5.5209  -5.5147  -5.3689
    -5.3685  -5.3652  -5.3594  -5.3559  -5.3512  -4.4465  -4.4435  -4.4216
    -4.4155  -4.4123  -4.3770  -4.2924  -4.2857  -4.2675  -4.2631  -4.2517
    -4.2396  -3.9560  -3.9481  -3.9374  -3.1744  -3.1642  -3.1616  -3.0305
    -2.9672  -2.8720  -2.6449  -2.6418  -2.6310  -2.4109  -2.2419  -2.1811
    -2.1647  -1.7302  -1.7259  -1.7254  -0.3021  -0.1504  -0.0389  -0.0104
     0.2262   0.6624   1.1278   1.1361   1.4487   1.4529   1.4769   1.5798
     1.6432   1.6905   1.7349   1.7359   1.7429   1.7598   1.8983   2.1958
     2.2165   2.2503   2.2989   2.3848

     highest occupied, lowest unoccupied level (ev):    -0.9981   -0.5388

!    total energy              =    -448.46380835 Ry
     Harris-Foulkes estimate   =    -448.46383479 Ry
     estimated scf accuracy    <       0.00002852 Ry

     convergence has been achieved in   3 iterations

     Using ACE for calculation of exact exchange

!!   total energy              =    -448.46381701 Ry
     Harris-Foulkes estimate   =    -448.46384345 Ry
     est. exchange err (dexx)  =       0.00000866 Ry
     - averaged Fock potential =      48.83229427 Ry
     + Fock energy (ACE)       =     -24.41754545 Ry

     EXX self-consistency reached

     Forces acting on atoms (cartesian axes, Ry/au):

     atom    1 type  1   force =     0.00000000    0.00000000   -0.00147214
     atom    2 type  1   force =     0.00000000    0.00278847    0.00189307
     atom    3 type  1   force =     0.00278390   -0.00088817   -0.00043937
     atom    4 type  1   force =     0.00082267    0.00047497    0.00191228
     atom    5 type  1   force =     0.00062277    0.00285501   -0.00043937
     atom    6 type  1   force =     0.00241489   -0.00139423    0.00189307
     atom    7 type  1   force =    -0.00216112   -0.00196684   -0.00043937
     atom    8 type  1   force =     0.00137897    0.00079615   -0.00072733
     atom    9 type  1   force =    -0.00278390   -0.00088817   -0.00043937
     atom   10 type  1   force =    -0.00082267    0.00047497    0.00191228
     atom   11 type  1   force =     0.00000000    0.00000000   -0.00496165
     atom   12 type  1   force =     0.00000000   -0.00094993    0.00191228
     atom   13 type  1   force =     0.00216112   -0.00196684   -0.00043937
     atom   14 type  1   force =    -0.00137897    0.00079615   -0.00072733
     atom   15 type  1   force =     0.00000000    0.00000000    0.00219308
     atom   16 type  1   force =    -0.00000000   -0.00159230   -0.00072733
     atom   17 type  1   force =    -0.00062277    0.00285501   -0.00043937
     atom   18 type  1   force =    -0.00241489   -0.00139423    0.00189307
     atom   19 type  2   force =     0.00000000    0.00000000   -0.00358852
     atom   20 type  3   force =     0.00000000    0.00690379    0.00201125
     atom   21 type  2   force =     0.00179449   -0.00582574   -0.00506188
     atom   22 type  3   force =     0.00164768    0.00728423    0.00747533
     atom   23 type  2   force =    -0.00233052   -0.00134553   -0.00596813
     atom   24 type  3   force =     0.00713217   -0.00221519    0.00747533
     atom   25 type  2   force =    -0.00414799    0.00446694   -0.00506188
     atom   26 type  3   force =     0.00597886   -0.00345189    0.00201125
     atom   27 type  2   force =    -0.00594248    0.00135879   -0.00506188
     atom   28 type  3   force =     0.00442672    0.00255577    0.00283174
     atom   29 type  2   force =    -0.00179449   -0.00582574   -0.00506188
     atom   30 type  3   force =    -0.00164768    0.00728423    0.00747533
     atom   31 type  2   force =     0.00000000   -0.00547486   -0.00627046
     atom   32 type  3   force =     0.00000000    0.00000000    0.01676411
     atom   33 type  2   force =    -0.00474137    0.00273743   -0.00627046
     atom   34 type  3   force =     0.00548449   -0.00506905    0.00747533
     atom   35 type  2   force =     0.00000000    0.00269105   -0.00596813
     atom   36 type  3   force =     0.00000000   -0.00195434    0.00314615
     atom   37 type  2   force =    -0.00221755   -0.00128030   -0.00575502
     atom   38 type  3   force =    -0.00169251    0.00097717    0.00314615
     atom   39 type  2   force =     0.00233052   -0.00134553   -0.00596813
     atom   40 type  3   force =    -0.00713217   -0.00221519    0.00747533
     atom   41 type  2   force =     0.00474137    0.00273743   -0.00627046
     atom   42 type  3   force =    -0.00548449   -0.00506905    0.00747533
     atom   43 type  2   force =     0.00594248    0.00135879   -0.00506188
     atom   44 type  3   force =    -0.00442672    0.00255577    0.00283174
     atom   45 type  2   force =     0.00221755   -0.00128030   -0.00575502
     atom   46 type  3   force =     0.00169251    0.00097717    0.00314615
     atom   47 type  2   force =     0.00000000    0.00256061   -0.00575502
     atom   48 type  3   force =    -0.00000000   -0.00511153    0.00283174
     atom   49 type  2   force =     0.00414799    0.00446694   -0.00506188
     atom   50 type  3   force =    -0.00597886   -0.00345189    0.00201125

     Total force =     0.047283     Total SCF correction =     0.011359
     SCF correction compared to forces is large: reduce conv_thr to get better values

     Computing stress (Cartesian axis) and pressure

          total   stress  (Ry/bohr**3)                   (kbar)     P=  -15.77
  -0.00010564   0.00000000   0.00000000        -15.54      0.00      0.00
   0.00000000  -0.00010564   0.00000000          0.00    -15.54      0.00
   0.00000000   0.00000000  -0.00011025          0.00      0.00    -16.22

     Writing output data file gesic2-hse.save/

     General routines

     Parallel routines

     EXX routines

      37h

   This run was terminated on:   0:40:33  20Apr2020

   JOB DONE.