     Program PWSCF v.6.3 starts on 19Apr2020 at 17: 3:56

     Waiting for input...
     Reading input from standard input

     Current dimensions of program PWSCF are:
     Max number of different atomic species (ntypx) = 10
     Max number of k-points (npk) =  40000
     Max angular momentum in pseudopotentials (lmaxx) =  3

     IMPORTANT: XC functional enforced from input :
     Exchange-correlation      = HSE ( 1  4 12  4 0 0)
     EXX-fraction              =        0.25
     Any further DFT definition will be discarded
     Please, verify this is what you really want

               file Ge.pbe-mt_fhi.UPF: wavefunction(s)  4d 4f renormalized
               file C.pbe-mt_fhi.UPF: wavefunction(s)  4f renormalized
               file Si.pbe-mt_fhi.UPF: wavefunction(s)  4f renormalized

     Parameters for Dispersion (Grimme-D2) Correction:
       atom      VdW radius       C_6

        Ge         3.264        593.221
        C          2.744         60.710
        Si         3.243        320.200

     Subspace diagonalization in iterative solution of the eigenvalue problem:
     a serial algorithm will be used

     EXX: setup a grid of 3 q-points centered on each k-point
     (k+q)-points:
   0.0000000   0.0000000   0.0000000         1    1
   0.0000000   0.3849002   0.0000000         2    1
   0.3333333   0.5773503   0.0000000         3    1

     bravais-lattice index     =            4
     lattice parameter (alat)  =      23.1302  a.u.
     unit-cell volume          =   17511.3678 (a.u.)^3
     number of atoms/cell      =           50
     number of atomic types    =            3
     number of electrons       =       200.00
     number of Kohn-Sham states=          124
     kinetic-energy cutoff     =      30.0000  Ry
     charge density cutoff     =     120.0000  Ry
     cutoff for Fock operator  =     120.0000  Ry
     convergence threshold     =      1.0E-04
     mixing beta               =       0.7000
     number of iterations used =            8  plain     mixing
     Exchange-correlation      = HSE ( 1  4 12  4 0 0)
     EXX-fraction              =        0.25

     celldm(1)=  23.130248  celldm(2)=   0.000000  celldm(3)=   1.633987
     celldm(4)=   0.000000  celldm(5)=   0.000000  celldm(6)=   0.000000

     crystal axes: (cart. coord. in units of alat)
               a(1) = (   1.000000   0.000000   0.000000 )
               a(2) = (  -0.500000   0.866025   0.000000 )
               a(3) = (   0.000000   0.000000   1.633987 )

     reciprocal axes: (cart. coord. in units 2 pi/alat)
               b(1) = (  1.000000  0.577350 -0.000000 )
               b(2) = (  0.000000  1.154701  0.000000 )
               b(3) = (  0.000000 -0.000000  0.612000 )

     PseudoPot. # 1 for Ge read from file:
     ./pseudo/Ge.pbe-mt_fhi.UPF
     MD5 check sum: b08ff19c3d362044f6e29226b459d86a
     Pseudo is Norm-conserving, Zval =  4.0
     Generated using FHI98PP, converted with fhi2upf.x v.5.0.2
     Using radial grid of  529 points,  3 beta functions with:
                l(1) =   1
                l(2) =   2
                l(3) =   3

     PseudoPot. # 2 for C  read from file:
     ./pseudo/C.pbe-mt_fhi.UPF
     MD5 check sum: 058ca341f9d6d5327d9962fd88a91b65
     Pseudo is Norm-conserving, Zval =  4.0
     Generated using FHI98PP, converted with fhi2upf.x v.5.0.2
     Using radial grid of  461 points,  3 beta functions with:
                l(1) =   0
                l(2) =   1
                l(3) =   3

     PseudoPot. # 3 for Si read from file:
     ./pseudo/Si.pbe-mt_fhi.UPF
     MD5 check sum: 259057c2adf9952f9ced37ae3d9e311d
     Pseudo is Norm-conserving, Zval =  4.0
     Generated using FHI98PP, converted with fhi2upf.x v.5.0.2
     Using radial grid of  495 points,  3 beta functions with:
                l(1) =   0
                l(2) =   1
                l(3) =   3

     atomic species   valence    mass     pseudopotential
        Ge             4.00    72.59000     Ge( 1.00)
        C              4.00    12.01070     C ( 1.00)
        Si             4.00    28.08550     Si( 1.00)

      6 Sym. Ops. (no inversion) found

   Cartesian axes

     site n.     atom                  positions (alat units)
         1           Ge  tau(   1) = (   0.0000000   0.0000000   0.2614379  )
         2           Ge  tau(   2) = (   0.0000000   0.1924510   0.3163399  )
         3           Ge  tau(   3) = (  -0.1666667   0.2886751   0.2614379  )
         4           Ge  tau(   4) = (  -0.1666667   0.4811261   0.3163399  )
         5           Ge  tau(   5) = (  -0.3333333   0.5773503   0.2614379  )
         6           Ge  tau(   6) = (  -0.3333333   0.7698012   0.3163399  )
         7           Ge  tau(   7) = (   0.3333333   0.0000000   0.2614379  )
         8           Ge  tau(   8) = (   0.3333333   0.1924510   0.3163399  )
         9           Ge  tau(   9) = (   0.1666667   0.2886751   0.2614379  )
        10           Ge  tau(  10) = (   0.1666667   0.4811261   0.3163399  )
        11           Ge  tau(  11) = (   0.0000000   0.5773503   0.2614379  )
        12           Ge  tau(  12) = (   0.0000000   0.7698012   0.3163399  )
        13           Ge  tau(  13) = (   0.6666667   0.0000000   0.2614379  )
        14           Ge  tau(  14) = (   0.6666667   0.1924510   0.3163399  )
        15           Ge  tau(  15) = (   0.5000000   0.2886751   0.2614379  )
        16           Ge  tau(  16) = (   0.5000000   0.4811261   0.3163399  )
        17           Ge  tau(  17) = (   0.3333333   0.5773503   0.2614379  )
        18           Ge  tau(  18) = (   0.3333333   0.7698012   0.3163399  )
        19           Si  tau(  19) = (   0.0000000   0.0000000   0.0000000  )
        20           C   tau(  20) = (   0.0000000   0.1443382   0.0000000  )
        21           Si  tau(  21) = (  -0.1250000   0.2165064   0.0000000  )
        22           C   tau(  22) = (  -0.1250000   0.3608446   0.0000000  )
        23           Si  tau(  23) = (  -0.2500000   0.4330127   0.0000000  )
        24           C   tau(  24) = (  -0.2500000   0.5773509   0.0000000  )
        25           Si  tau(  25) = (  -0.3750000   0.6495191   0.0000000  )
        26           C   tau(  26) = (  -0.3750000   0.7938573   0.0000000  )
        27           Si  tau(  27) = (   0.2500000   0.0000000   0.0000000  )
        28           C   tau(  28) = (   0.2500000   0.1443382   0.0000000  )
        29           Si  tau(  29) = (   0.1250000   0.2165064   0.0000000  )
        30           C   tau(  30) = (   0.1250000   0.3608446   0.0000000  )
        31           Si  tau(  31) = (   0.0000000   0.4330127   0.0000000  )
        32           C   tau(  32) = (   0.0000000   0.5773509   0.0000000  )
        33           Si  tau(  33) = (  -0.1250000   0.6495191   0.0000000  )
        34           C   tau(  34) = (  -0.1250000   0.7938573   0.0000000  )
        35           Si  tau(  35) = (   0.5000000   0.0000000   0.0000000  )
        36           C   tau(  36) = (   0.5000000   0.1443382   0.0000000  )
        37           Si  tau(  37) = (   0.3750000   0.2165064   0.0000000  )
        38           C   tau(  38) = (   0.3750000   0.3608446   0.0000000  )
        39           Si  tau(  39) = (   0.2500000   0.4330127   0.0000000  )
        40           C   tau(  40) = (   0.2500000   0.5773509   0.0000000  )
        41           Si  tau(  41) = (   0.1250000   0.6495191   0.0000000  )
        42           C   tau(  42) = (   0.1250000   0.7938573   0.0000000  )
        43           Si  tau(  43) = (   0.7500000   0.0000000   0.0000000  )
        44           C   tau(  44) = (   0.7500000   0.1443382   0.0000000  )
        45           Si  tau(  45) = (   0.6250000   0.2165064   0.0000000  )
        46           C   tau(  46) = (   0.6250000   0.3608446   0.0000000  )
        47           Si  tau(  47) = (   0.5000000   0.4330127   0.0000000  )
        48           C   tau(  48) = (   0.5000000   0.5773509   0.0000000  )
        49           Si  tau(  49) = (   0.3750000   0.6495191   0.0000000  )
        50           C   tau(  50) = (   0.3750000   0.7938573   0.0000000  )

     number of k points=     3
                       cart. coord. in units 2pi/alat
        k(    1) = (   0.0000000   0.0000000   0.0000000), wk =   0.2222222
        k(    2) = (   0.0000000   0.3849002   0.0000000), wk =   1.3333333
        k(    3) = (   0.3333333   0.5773503   0.0000000), wk =   0.4444444

     Initial potential from superposition of free atoms
     Check: negative starting charge=   -0.006731

     starting charge  199.97158, renormalised to  200.00000

     negative rho (up, down):  6.732E-03 0.000E+00
     Starting wfcs are  800 randomized atomic wfcs

     Self-consistent Calculation

     iteration #  1     ecut=    30.00 Ry     beta= 0.70
     Davidson diagonalization with overlap
     ethr =  1.00E-02,  avg # of iterations =  2.0

     negative rho (up, down):  1.401E-03 0.000E+00

     total energy              =    -444.58135891 Ry
     Harris-Foulkes estimate   =    -451.60202123 Ry
     estimated scf accuracy    <      10.40655256 Ry

[...]

     negative rho (up, down):  4.760E-07 0.000E+00

[...]

     End of self-consistent calculation

          k = 0.0000 0.0000 0.0000 ( 48515 PWs)   bands (ev):

   -15.9294 -14.9641 -14.9317 -14.9317 -14.8605 -14.8605 -14.8190 -13.2198
   -13.1951 -13.1156 -13.1156 -13.0874 -13.0874 -12.8796 -12.8796 -12.8691
   -12.0312 -10.9142 -10.9142 -10.9110 -10.8892 -10.8889 -10.8889  -9.9591
    -9.9591  -9.9561  -9.1515  -9.1495  -9.0587  -9.0587  -8.7419  -8.7419
    -8.6914  -8.6914  -8.6597  -8.6563  -6.9597  -6.9597  -6.9462  -6.9334
    -6.9275  -6.9274  -6.7336  -6.7335  -6.6773  -6.6611  -6.6611  -6.6568
    -6.5590  -6.5187  -6.5186  -6.4734  -6.4733  -6.4541  -6.1833  -5.0324
    -5.0038  -5.0038  -4.9417  -4.9417  -4.9097  -4.8204  -4.8202  -4.8201
    -4.6001  -4.6001  -4.1616  -4.1479  -4.1479  -4.1197  -4.1197  -4.1028
    -3.9525  -3.2780  -3.2700  -3.2290  -3.2288  -2.9998  -2.9998  -2.8661
    -2.8661  -2.8186  -2.8162  -2.8162  -2.6306  -2.6045  -2.6045  -2.5777
    -2.5776  -2.5752  -2.3373  -2.3372  -2.3309  -2.2464  -2.2419  -2.2419
    -1.4051  -1.4050  -0.7279  -0.7279  -0.6429  -0.6059  -0.6011  -0.1446
    -0.1445  -0.1232   0.3597   0.3742   0.3742   0.6299   0.6299   0.7187
     1.0812   1.0812   1.1414   1.1967   1.4246   1.4247   1.4386   1.6767
     1.6770   1.6770   1.7652   1.7652

[...]

     highest occupied, lowest unoccupied level (ev):    -0.7279   -0.6429

!    total energy              =    -448.67564271 Ry
     Harris-Foulkes estimate   =    -448.67568285 Ry
     estimated scf accuracy    <       0.00004772 Ry

     convergence has been achieved in  12 iterations

     Using ACE for calculation of exact exchange

     EXX: now go back to refine exchange calculation

[...]

     total energy              =    -448.46179878 Ry
     Harris-Foulkes estimate   =    -448.46185856 Ry
     est. exchange err (dexx)  =       0.00450262 Ry
     - averaged Fock potential =      48.75271535 Ry
     + Fock energy (ACE)       =     -24.40733089 Ry

[...]

     total energy              =    -448.46265401 Ry
     Harris-Foulkes estimate   =    -448.46269047 Ry
     est. exchange err (dexx)  =       0.00013601 Ry
     - averaged Fock potential =      48.82477249 Ry
     + Fock energy (ACE)       =     -24.41757761 Ry

     EXX: now go back to refine exchange calculation

     Self-consistent Calculation

[...]

     total energy              =    -448.46222883 Ry
     Harris-Foulkes estimate   =    -448.46328210 Ry
     estimated scf accuracy    <       0.00314971 Ry

     iteration #  3     ecut=    30.00 Ry     beta= 0.70
     Davidson diagonalization with overlap
     ethr =  2.40E-07,  avg # of iterations =  3.0

     End of self-consistent calculation

[...]

          k = 0.3333 0.5774 0.0000 ( 48552 PWs)   bands (ev):

   -17.6905 -17.6104 -17.5652 -16.5227 -16.5217 -16.5180 -15.6248 -15.5885
   -15.5842 -15.5131 -15.5089 -15.4758 -14.5631 -14.4792 -14.4315 -14.1042
   -13.1295 -13.1209 -13.1093 -11.8919 -11.8769 -11.8725 -11.2544 -11.2362
   -11.2297 -11.0177 -10.9786 -10.9443 -10.5192  -9.9818  -9.9759  -9.9532
    -9.9264  -9.9093  -9.8943  -9.4047  -9.4024  -9.3889  -8.8944  -8.3565
    -8.3431  -8.3403  -7.9235  -7.9203  -7.9202  -7.2896  -7.2697  -7.2262
    -6.8605  -6.7914  -6.7867  -6.0048  -5.9971  -5.9692  -5.9450  -5.9168
    -5.9107  -5.8583  -5.8543  -5.8527  -5.5152  -5.5126  -5.5113  -5.3853
    -5.3849  -5.3824  -5.3746  -5.3580  -5.3480  -4.4687  -4.4499  -4.4497
    -4.4203  -4.3994  -4.3962  -4.3127  -4.2880  -4.2875  -4.2791  -4.2650
    -4.2517  -3.9658  -3.9374  -3.9326  -3.1564  -3.1545  -3.1492  -3.0843
    -2.9201  -2.8960  -2.6471  -2.6390  -2.6375  -2.4161  -2.2203  -2.1867
    -2.1270  -1.7136  -1.7130  -1.7090  -0.3137  -0.1277  -0.0918  -0.0207
     0.2828   0.5621   1.0849   1.2858   1.3913   1.4616   1.4735   1.4779
     1.6855   1.6969   1.7189   1.7215   1.7243   1.7406   1.9875   2.1630
     2.1994   2.2408   2.2976   2.4068

     highest occupied, lowest unoccupied level (ev):    -0.9883   -0.5378

!    total energy              =    -448.46280916 Ry
     Harris-Foulkes estimate   =    -448.46271675 Ry
     estimated scf accuracy    <       0.00002625 Ry

     convergence has been achieved in   3 iterations

     Using ACE for calculation of exact exchange

!!   total energy              =    -448.46281778 Ry
     Harris-Foulkes estimate   =    -448.46272537 Ry
     est. exchange err (dexx)  =       0.00000862 Ry
     - averaged Fock potential =      48.83790960 Ry
     + Fock energy (ACE)       =     -24.42034061 Ry

     EXX self-consistency reached

     Forces acting on atoms (cartesian axes, Ry/au):

     atom    1 type  1   force =     0.00000000   -0.00000000    0.00329386
     atom    2 type  1   force =     0.00000000   -0.00087353   -0.00021192
     atom    3 type  1   force =    -0.00200256    0.00492215    0.00015849
     atom    4 type  1   force =    -0.00182049   -0.00105106    0.00304024
     atom    5 type  1   force =     0.00326143   -0.00419534    0.00015849
     atom    6 type  1   force =    -0.00075650    0.00043677   -0.00021192
     atom    7 type  1   force =     0.00526399   -0.00072681    0.00015849
     atom    8 type  1   force =     0.00103321    0.00059652    0.00169188
     atom    9 type  1   force =     0.00200256    0.00492215    0.00015849
     atom   10 type  1   force =     0.00182049   -0.00105106    0.00304024
     atom   11 type  1   force =     0.00000000   -0.00000000   -0.00323662
     atom   12 type  1   force =     0.00000000    0.00210212    0.00304024
     atom   13 type  1   force =    -0.00526399   -0.00072681    0.00015849
     atom   14 type  1   force =    -0.00103321    0.00059652    0.00169188
     atom   15 type  1   force =     0.00000000    0.00000000   -0.00209235
     atom   16 type  1   force =     0.00000000   -0.00119305    0.00169188
     atom   17 type  1   force =    -0.00326143   -0.00419534    0.00015849
     atom   18 type  1   force =     0.00075650    0.00043677   -0.00021192
     atom   19 type  3   force =     0.00000000   -0.00000000    0.00358296
     atom   20 type  2   force =     0.00000000    0.00466641   -0.01076619
     atom   21 type  3   force =     0.00438902   -0.01083801    0.00360189
     atom   22 type  2   force =     0.00208288    0.00485931   -0.00497611
     atom   23 type  3   force =    -0.00419234   -0.00242045    0.00656072
     atom   24 type  2   force =     0.00524973   -0.00062583   -0.00497611
     atom   25 type  3   force =    -0.00719148    0.00922001    0.00360189
     atom   26 type  2   force =     0.00404123   -0.00233320   -0.01076619
     atom   27 type  3   force =    -0.01158050    0.00161800    0.00360189
     atom   28 type  2   force =     0.00178252    0.00102914   -0.00677580
     atom   29 type  3   force =    -0.00438902   -0.01083801    0.00360189
     atom   30 type  2   force =    -0.00208288    0.00485931   -0.00497611
     atom   31 type  3   force =     0.00000000   -0.00877112    0.00297270
     atom   32 type  2   force =     0.00000000   -0.00000000   -0.00167617
     atom   33 type  3   force =    -0.00759601    0.00438556    0.00297270
     atom   34 type  2   force =     0.00316685   -0.00423348   -0.00497611
     atom   35 type  3   force =    -0.00000000    0.00484090    0.00656072
     atom   36 type  2   force =     0.00000000   -0.00304716   -0.00350561
     atom   37 type  3   force =    -0.00369604   -0.00213391    0.00946823
     atom   38 type  2   force =    -0.00263891    0.00152358   -0.00350561
     atom   39 type  3   force =     0.00419234   -0.00242045    0.00656072
     atom   40 type  2   force =    -0.00524973   -0.00062583   -0.00497611
     atom   41 type  3   force =     0.00759601    0.00438556    0.00297270
     atom   42 type  2   force =    -0.00316685   -0.00423348   -0.00497611
     atom   43 type  3   force =     0.01158050    0.00161800    0.00360189
     atom   44 type  2   force =    -0.00178252    0.00102914   -0.00677580
     atom   45 type  3   force =     0.00369604   -0.00213391    0.00946823
     atom   46 type  2   force =     0.00263891    0.00152358   -0.00350561
     atom   47 type  3   force =     0.00000000    0.00426782    0.00946823
     atom   48 type  2   force =     0.00000000   -0.00205827   -0.00677580
     atom   49 type  3   force =     0.00719148    0.00922001    0.00360189
     atom   50 type  2   force =    -0.00404123   -0.00233320   -0.01076619

     Total force =     0.053761     Total SCF correction =     0.008945
     SCF correction compared to forces is large: reduce conv_thr to get better values

     Computing stress (Cartesian axis) and pressure

          total   stress  (Ry/bohr**3)                   (kbar)     P=  -15.59
  -0.00010561   0.00000000   0.00000000        -15.54      0.00      0.00
   0.00000000  -0.00010561  -0.00000000          0.00    -15.54     -0.00
   0.00000000  -0.00000000  -0.00010665          0.00     -0.00    -15.69

     Writing output data file gesic1-hse.save/

     General routines

     Parallel routines

     EXX routines

      57h

   This run was terminated on:   0: 1: 5  20Apr2020

   JOB DONE.