     Program PWSCF v.6.3 starts on 19Apr2020 at 17: 2:35

     Waiting for input...
     Reading input from standard input

     Current dimensions of program PWSCF are:
     Max number of different atomic species (ntypx) = 10
     Max number of k-points (npk) =  40000
     Max angular momentum in pseudopotentials (lmaxx) =  3

     IMPORTANT: XC functional enforced from input :
     Exchange-correlation      = HSE ( 1  4 12  4 0 0)
     EXX-fraction              =        0.25
     Any further DFT definition will be discarded
     Please, verify this is what you really want

               file Ge.pbe-mt_fhi.UPF: wavefunction(s)  4d 4f renormalized
               file Si.pbe-mt_fhi.UPF: wavefunction(s)  4f renormalized
               file C.pbe-mt_fhi.UPF: wavefunction(s)  4f renormalized

     Parameters for Dispersion (Grimme-D2) Correction:
       atom      VdW radius       C_6

        Ge         3.264        593.221
        Si         3.243        320.200
        C          2.744         60.710

     Subspace diagonalization in iterative solution of the eigenvalue problem:
     a serial algorithm will be used

     EXX: setup a grid of 5 q-points centered on each k-point
     (k+q)-points:
   0.0000000   0.0000000   0.0000000         1    1
   0.0000000   0.3849002   0.0000000         2    1
   0.3333333   0.5773503   0.0000000         3    1
  -0.3333333   0.1924501   0.0000000         4    1
   0.3333333   0.1924501   0.0000000         5    1

     bravais-lattice index     =            4
     lattice parameter (alat)  =      23.1302  a.u.
     unit-cell volume          =   17511.3678 (a.u.)^3
     number of atoms/cell      =           50
     number of atomic types    =            3
     number of electrons       =       200.00
     number of Kohn-Sham states=          124
     kinetic-energy cutoff     =      30.0000  Ry
     charge density cutoff     =     120.0000  Ry
     cutoff for Fock operator  =     120.0000  Ry
     convergence threshold     =      1.0E-04
     mixing beta               =       0.7000
     number of iterations used =            8  plain     mixing
     Exchange-correlation      = HSE ( 1  4 12  4 0 0)
     EXX-fraction              =        0.25

     celldm(1)=  23.130248  celldm(2)=   0.000000  celldm(3)=   1.633987
     celldm(4)=   0.000000  celldm(5)=   0.000000  celldm(6)=   0.000000

     crystal axes: (cart. coord. in units of alat)
               a(1) = (   1.000000   0.000000   0.000000 )
               a(2) = (  -0.500000   0.866025   0.000000 )
               a(3) = (   0.000000   0.000000   1.633987 )

     reciprocal axes: (cart. coord. in units 2 pi/alat)
               b(1) = (  1.000000  0.577350 -0.000000 )
               b(2) = (  0.000000  1.154701  0.000000 )
               b(3) = (  0.000000 -0.000000  0.612000 )

     PseudoPot. # 1 for Ge read from file:
     ./pseudo/Ge.pbe-mt_fhi.UPF
     MD5 check sum: b08ff19c3d362044f6e29226b459d86a
     Pseudo is Norm-conserving, Zval =  4.0
     Generated using FHI98PP, converted with fhi2upf.x v.5.0.2
     Using radial grid of  529 points,  3 beta functions with:
                l(1) =   1
                l(2) =   2
                l(3) =   3

     PseudoPot. # 2 for Si read from file:
     ./pseudo/Si.pbe-mt_fhi.UPF
     MD5 check sum: 259057c2adf9952f9ced37ae3d9e311d
     Pseudo is Norm-conserving, Zval =  4.0
     Generated using FHI98PP, converted with fhi2upf.x v.5.0.2
     Using radial grid of  495 points,  3 beta functions with:
                l(1) =   0
                l(2) =   1
                l(3) =   3

     PseudoPot. # 3 for C  read from file:
     ./pseudo/C.pbe-mt_fhi.UPF
     MD5 check sum: 058ca341f9d6d5327d9962fd88a91b65
     Pseudo is Norm-conserving, Zval =  4.0
     Generated using FHI98PP, converted with fhi2upf.x v.5.0.2
     Using radial grid of  461 points,  3 beta functions with:
                l(1) =   0
                l(2) =   1
                l(3) =   3

     atomic species   valence    mass     pseudopotential
        Ge             4.00    72.59000     Ge( 1.00)
        Si             4.00    28.08550     Si( 1.00)
        C              4.00    12.01070     C ( 1.00)

     No symmetry found

   Cartesian axes

     site n.     atom                  positions (alat units)
         1           Ge  tau(   1) = (   0.0000000   0.1847712   0.3197712  )
         2           Ge  tau(   2) = (  -0.1666667   0.4734464   0.3197712  )
         3           Ge  tau(   3) = (  -0.3333333   0.7621215   0.3197712  )
         4           Ge  tau(   4) = (   0.3333333   0.1847712   0.3197712  )
         5           Ge  tau(   5) = (   0.1666667   0.2809954   0.2648693  )
         6           Ge  tau(   6) = (   0.1666667   0.4734464   0.3197712  )
         7           Ge  tau(   7) = (   0.0000000   0.5696705   0.2648693  )
         8           Ge  tau(   8) = (   0.0000000   0.7621215   0.3197712  )
         9           Ge  tau(   9) = (  -0.1666667   0.8583457   0.2648693  )
        10           Ge  tau(  10) = (   0.6666667   0.1847712   0.3197712  )
        11           Ge  tau(  11) = (   0.5000000   0.2809954   0.2647876  )
        12           Ge  tau(  12) = (   0.5000000   0.4734464   0.3197712  )
        13           Ge  tau(  13) = (   0.3333333   0.5696705   0.2647876  )
        14           Ge  tau(  14) = (   0.3333333   0.7621215   0.3197712  )
        15           Ge  tau(  15) = (   0.1666667   0.8583457   0.2648693  )
        16           Ge  tau(  16) = (   0.8333333   0.2809954   0.2648693  )
        17           Ge  tau(  17) = (   0.6666667   0.5696705   0.2648693  )
        18           Ge  tau(  18) = (   0.5000000   0.8583457   0.2648693  )
        19           Si  tau(  19) = (   0.0000000   0.1388889   0.0000000  )
        20           Si  tau(  20) = (  -0.1250000   0.3553952   0.0000000  )
        21           Si  tau(  21) = (  -0.2500000   0.5719016   0.0000000  )
        22           Si  tau(  22) = (  -0.3750000   0.7884079   0.0000000  )
        23           Si  tau(  23) = (   0.2500000   0.1388889   0.0000000  )
        24           C   tau(  24) = (   0.1250000   0.2110570   0.0000000  )
        25           Si  tau(  25) = (   0.1250000   0.3553952   0.0000000  )
        26           C   tau(  26) = (   0.0000000   0.4275634   0.0000000  )
        27           Si  tau(  27) = (   0.0000000   0.5719016   0.0000000  )
        28           C   tau(  28) = (  -0.1250000   0.6440697   0.0000000  )
        29           Si  tau(  29) = (  -0.1250000   0.7884079   0.0000000  )
        30           C   tau(  30) = (  -0.2500000   0.8605761   0.0000000  )
        31           Si  tau(  31) = (   0.5000000   0.1388889   0.0000000  )
        32           C   tau(  32) = (   0.3750000   0.2110570   0.0000000  )
        33           Si  tau(  33) = (   0.3750000   0.3553952   0.0000000  )
        34           C   tau(  34) = (   0.2500000   0.4275634   0.0000000  )
        35           Si  tau(  35) = (   0.2500000   0.5719016   0.0000000  )
        36           C   tau(  36) = (   0.1250000   0.6440697   0.0000000  )
        37           Si  tau(  37) = (   0.1250000   0.7884079   0.0000000  )
        38           C   tau(  38) = (   0.0000000   0.8605761   0.0000000  )
        39           Si  tau(  39) = (   0.7500000   0.1388889   0.0000000  )
        40           C   tau(  40) = (   0.6250000   0.2110570   0.0000000  )
        41           Si  tau(  41) = (   0.6250000   0.3553952   0.0000000  )
        42           C   tau(  42) = (   0.5000000   0.4275634   0.0000000  )
        43           Si  tau(  43) = (   0.5000000   0.5719016   0.0000000  )
        44           C   tau(  44) = (   0.3750000   0.6440697   0.0000000  )
        45           Si  tau(  45) = (   0.3750000   0.7884079   0.0000000  )
        46           C   tau(  46) = (   0.2500000   0.8605761   0.0000000  )
        47           C   tau(  47) = (   0.8750000   0.2110570   0.0000000  )
        48           C   tau(  48) = (   0.7500000   0.4275634   0.0000000  )
        49           C   tau(  49) = (   0.6250000   0.6440697   0.0000000  )
        50           C   tau(  50) = (   0.5000000   0.8605761   0.0000000  )

     number of k points=     5
                       cart. coord. in units 2pi/alat
        k(    1) = (   0.0000000   0.0000000   0.0000000), wk =   0.2222222
        k(    2) = (   0.0000000   0.3849002   0.0000000), wk =   0.4444444
        k(    3) = (   0.3333333   0.5773503   0.0000000), wk =   0.4444444
        k(    4) = (  -0.3333333   0.1924501   0.0000000), wk =   0.4444444
        k(    5) = (   0.3333333   0.1924501   0.0000000), wk =   0.4444444

     Initial potential from superposition of free atoms
     Check: negative starting charge=   -0.006694

     starting charge  199.97158, renormalised to  200.00000

     negative rho (up, down):  6.695E-03 0.000E+00
     Starting wfcs are  800 randomized atomic wfcs

     Self-consistent Calculation

     iteration #  1     ecut=    30.00 Ry     beta= 0.70
     Davidson diagonalization with overlap
     ethr =  1.00E-02,  avg # of iterations =  2.0

     negative rho (up, down):  1.394E-03 0.000E+00

     total energy              =    -444.61070875 Ry
     Harris-Foulkes estimate   =    -451.60510617 Ry
     estimated scf accuracy    <      10.38261666 Ry

[...]

     negative rho (up, down):  4.821E-07 0.000E+00

[...]

     End of self-consistent calculation

          k = 0.0000 0.0000 0.0000 ( 48515 PWs)   bands (ev):

   -15.9089 -14.9157 -14.8963 -14.8960 -14.8628 -14.8626 -14.8450 -13.1642
   -13.1525 -13.1012 -13.1012 -13.0906 -13.0904 -12.8804 -12.8801 -12.8760
   -12.0232 -10.9104 -10.9008 -10.9005 -10.8849 -10.8846 -10.8741  -9.9429
    -9.9428  -9.9403  -9.1359  -9.1347  -9.0520  -9.0519  -8.7025  -8.7022
    -8.6934  -8.6932  -8.6626  -8.6585  -6.9379  -6.9330  -6.9328  -6.9268
    -6.9264  -6.9157  -6.6980  -6.6966  -6.6720  -6.6629  -6.6615  -6.6526
    -6.5258  -6.4988  -6.4987  -6.4740  -6.4739  -6.4640  -6.1493  -4.9830
    -4.9630  -4.9624  -4.9286  -4.9281  -4.9101  -4.8059  -4.8058  -4.8052
    -4.5856  -4.5853  -4.1350  -4.1309  -4.1308  -4.1156  -4.1155  -4.1077
    -3.9801  -3.2212  -3.2211  -3.2201  -3.2142  -3.0015  -3.0007  -2.8548
    -2.8543  -2.7939  -2.7858  -2.7840  -2.6103  -2.6084  -2.6078  -2.5789
    -2.5609  -2.5600  -2.3548  -2.3547  -2.3458  -2.2858  -2.2722  -2.2722
    -1.3970  -1.3969  -0.7409  -0.7404  -0.6451  -0.6160  -0.5957  -0.1126
    -0.1112  -0.0926   0.3601   0.3641   0.4146   0.6289   0.6876   0.6895
     1.0986   1.1023   1.1184   1.1925   1.4547   1.4567   1.5701   1.5845
     1.5888   1.6700   1.7780   1.7859

[...]

          k =-0.3333 0.1925 0.0000 ( 48609 PWs)   bands (ev):

[...]

     highest occupied, lowest unoccupied level (ev):    -0.7404   -0.6451

!    total energy              =    -448.67674148 Ry
     Harris-Foulkes estimate   =    -448.67676402 Ry
     estimated scf accuracy    <       0.00002906 Ry

     convergence has been achieved in  12 iterations

     Using ACE for calculation of exact exchange

     EXX: now go back to refine exchange calculation

[...]

     total energy              =    -448.46289484 Ry
     Harris-Foulkes estimate   =    -448.46293803 Ry
     est. exchange err (dexx)  =       0.00451212 Ry
     - averaged Fock potential =      48.74308064 Ry
     + Fock energy (ACE)       =     -24.40258419 Ry

[...]

     total energy              =    -448.46374758 Ry
     Harris-Foulkes estimate   =    -448.46378530 Ry
     est. exchange err (dexx)  =       0.00013749 Ry
     - averaged Fock potential =      48.81538604 Ry
     + Fock energy (ACE)       =     -24.41293934 Ry

     EXX: now go back to refine exchange calculation

     Self-consistent Calculation

[...]

     total energy              =    -448.46335486 Ry
     Harris-Foulkes estimate   =    -448.46432900 Ry
     estimated scf accuracy    <       0.00288832 Ry

     iteration #  3     ecut=    30.00 Ry     beta= 0.70
     Davidson diagonalization with overlap
     ethr =  2.24E-07,  avg # of iterations =  3.0

     End of self-consistent calculation

[...]

          k =-0.3333 0.1925 0.0000 ( 48609 PWs)   bands (ev):

[...]

          k = 0.3333 0.1925 0.0000 ( 48609 PWs)   bands (ev):

   -17.8521 -17.4750 -17.1002 -17.0985 -16.3842 -16.3817 -16.0444 -15.7243
   -15.7223 -15.1859 -14.9146 -14.9017 -14.7856 -14.7759 -14.3283 -14.3282
   -13.4089 -12.9880 -12.5509 -12.5502 -11.7686 -11.7682 -11.5165 -11.0985
   -11.0980 -11.0222 -11.0191 -10.6292 -10.5503 -10.5443 -10.3939 -10.3938
    -9.3977  -9.3974  -9.2270  -9.1788  -9.1762  -9.1194  -8.6547  -8.6540
    -8.3894  -8.3868  -8.2977  -8.2932  -7.2366  -7.2346  -7.0904  -7.0871
    -7.0059  -6.7705  -6.7675  -6.7212  -6.6293  -6.6163  -6.1334  -6.1330
    -5.9626  -5.9616  -5.8521  -5.8032  -5.6043  -5.5344  -5.5335  -5.3368
    -5.2290  -5.2221  -4.9851  -4.9814  -4.8888  -4.8755  -4.8754  -4.7909
    -4.4795  -4.4732  -4.4216  -4.4210  -4.0935  -3.9201  -3.9199  -3.8354
    -3.5431  -3.5186  -3.4494  -3.3887  -3.3680  -3.2449  -3.2435  -3.1841
    -2.8978  -2.8169  -2.8156  -2.7221  -2.7062  -2.6288  -2.1646  -2.1562
    -2.1268  -2.0909  -1.4987  -1.4920  -0.2354  -0.2041   0.0048   0.1290
     0.1306   0.7777   0.8319   0.8445   0.8478   1.0218   1.2402   1.3504
     1.4644   1.5594   1.5807   1.5993   1.8325   1.8358   1.9499   1.9834
     2.0544   2.1738   2.1885   2.6431

     highest occupied, lowest unoccupied level (ev):    -1.0034   -0.5446

!    total energy              =    -448.46378375 Ry
     Harris-Foulkes estimate   =    -448.46381096 Ry
     estimated scf accuracy    <       0.00002934 Ry

     convergence has been achieved in   3 iterations

     Using ACE for calculation of exact exchange

!!   total energy              =    -448.46379247 Ry
     Harris-Foulkes estimate   =    -448.46381967 Ry
     est. exchange err (dexx)  =       0.00000872 Ry
     - averaged Fock potential =      48.82866982 Ry
     + Fock energy (ACE)       =     -24.41573920 Ry

     EXX self-consistency reached

     Forces acting on atoms (cartesian axes, Ry/au):

     atom    1 type  1   force =     0.00000671    0.00260893    0.00153472
     atom    2 type  1   force =     0.00071901    0.00056354    0.00152548
     atom    3 type  1   force =     0.00232426   -0.00142834    0.00153031
     atom    4 type  1   force =     0.00144813    0.00078932   -0.00095093
     atom    5 type  1   force =    -0.00272061   -0.00100848   -0.00067168
     atom    6 type  1   force =    -0.00065702    0.00059202    0.00150120
     atom    7 type  1   force =    -0.00000807    0.00005606   -0.00492928
     atom    8 type  1   force =    -0.00000063   -0.00092945    0.00166736
     atom    9 type  1   force =    -0.00204686   -0.00181110   -0.00086228
     atom   10 type  1   force =    -0.00145482    0.00078001   -0.00095755
     atom   11 type  1   force =     0.00001494   -0.00015576    0.00181128
     atom   12 type  1   force =    -0.00006131   -0.00151000   -0.00111462
     atom   13 type  1   force =    -0.00066589    0.00277708   -0.00056029
     atom   14 type  1   force =    -0.00232631   -0.00149658    0.00149821
     atom   15 type  1   force =     0.00205829   -0.00179894   -0.00086513
     atom   16 type  1   force =     0.00270659   -0.00101241   -0.00067066
     atom   17 type  1   force =     0.00067083    0.00275989   -0.00068600
     atom   18 type  1   force =    -0.00001407    0.00022121   -0.00186963
     atom   19 type  2   force =    -0.00000153    0.00630185    0.00214114
     atom   20 type  2   force =     0.00145022    0.00717836    0.00718415
     atom   21 type  2   force =     0.00676140   -0.00194332    0.00743950
     atom   22 type  2   force =     0.00575997   -0.00351697    0.00226934
     atom   23 type  2   force =     0.00443716    0.00221304    0.00300793
     atom   24 type  3   force =    -0.00184259   -0.00614285   -0.00470090
     atom   25 type  2   force =    -0.00144972    0.00717955    0.00718466
     atom   26 type  3   force =    -0.00000123   -0.00552800   -0.00595595
     atom   27 type  2   force =     0.00000247    0.00024379    0.01625013
     atom   28 type  3   force =    -0.00482140    0.00288784   -0.00597479
     atom   29 type  2   force =     0.00527495   -0.00489935    0.00767489
     atom   30 type  3   force =    -0.00617107    0.00147419   -0.00478285
     atom   31 type  2   force =     0.00000078   -0.00201625    0.00337786
     atom   32 type  3   force =    -0.00224113   -0.00132620   -0.00551530
     atom   33 type  2   force =    -0.00142950    0.00104591    0.00329964
     atom   34 type  3   force =     0.00244259   -0.00147762   -0.00571923
     atom   35 type  2   force =    -0.00677421   -0.00194710    0.00743764
     atom   36 type  3   force =     0.00483106    0.00289460   -0.00597694
     atom   37 type  2   force =    -0.00527304   -0.00489980    0.00767559
     atom   38 type  3   force =     0.00000903    0.00281125   -0.00572151
     atom   39 type  2   force =    -0.00443834    0.00221154    0.00300885
     atom   40 type  3   force =     0.00225002   -0.00133180   -0.00551314
     atom   41 type  2   force =     0.00142757    0.00104402    0.00330206
     atom   42 type  3   force =    -0.00000280    0.00246625   -0.00556191
     atom   43 type  2   force =     0.00000829   -0.00484614    0.00303562
     atom   44 type  3   force =     0.00423055    0.00472167   -0.00478207
     atom   45 type  2   force =    -0.00576215   -0.00350591    0.00227014
     atom   46 type  3   force =     0.00616446    0.00147757   -0.00477873
     atom   47 type  3   force =     0.00183846   -0.00614321   -0.00470308
     atom   48 type  3   force =    -0.00243367   -0.00148405   -0.00571325
     atom   49 type  3   force =    -0.00423341    0.00472830   -0.00477351
     atom   50 type  3   force =    -0.00000633    0.00013184   -0.00331648

     Total force =     0.046379     Total SCF correction =     0.011459
     SCF correction compared to forces is large: reduce conv_thr to get better values

     Computing stress (Cartesian axis) and pressure

          total   stress  (Ry/bohr**3)                   (kbar)     P=  -15.88
  -0.00010577   0.00000000  -0.00000000        -15.56      0.00     -0.00
   0.00000000  -0.00010580  -0.00000000          0.00    -15.56     -0.00
  -0.00000000  -0.00000000  -0.00011238         -0.00     -0.00    -16.53

     Writing output data file gesic3-hse.save/

     General routines

     Parallel routines

     EXX routines

      15h

   This run was terminated on:   3:18: 8  20Apr2020

   JOB DONE.